c generated by gen_benchmarks.py seed=0
c family=random_3sat weighted=false width=3 ratio=4.17
c revised DIMACS WCNF: h marks hard clauses; integer prefixes are soft weights
1 3 8 2 0
1 6 -18 9 0
1 12 -7 10 0
1 5 -12 3 0
1 5 -15 18 0
1 1 -18 -13 0
1 6 -9 3 0
1 -11 12 16 0
1 6 -2 -11 0
1 -5 -6 8 0
1 -18 -6 13 0
1 7 6 -1 0
1 -6 -4 -2 0
1 -18 2 -17 0
1 18 17 -14 0
1 -14 -12 -17 0
1 -14 10 9 0
1 13 -5 -10 0
1 11 5 18 0
1 13 16 9 0
1 -15 -2 -6 0
1 17 18 -10 0
1 -2 9 1 0
1 -9 -14 3 0
1 18 -5 -6 0
1 -13 -1 -12 0
1 -10 1 12 0
1 13 17 15 0
1 -10 11 -15 0
1 -15 9 7 0
1 -4 -3 15 0
1 -1 8 -10 0
1 -13 9 -3 0
1 -1 -5 8 0
1 -5 -9 -2 0
1 5 14 -15 0
1 9 4 -6 0
1 -11 -1 -2 0
1 -1 10 -17 0
1 7 18 -10 0
1 16 13 -11 0
1 -8 7 -10 0
1 13 -15 -4 0
1 -13 12 14 0
1 1 -17 3 0
1 4 -13 -10 0
1 14 -6 17 0
1 -6 -8 9 0
1 -17 -6 -13 0
1 -6 14 -5 0
1 13 12 -14 0
1 14 7 -17 0
1 4 17 11 0
1 14 13 -2 0
1 14 -17 13 0
1 5 6 -14 0
1 -11 17 -16 0
1 -2 15 -18 0
1 -18 13 11 0
1 -15 -5 18 0
1 18 -15 -6 0
1 5 15 -13 0
1 9 -14 18 0
1 4 11 -1 0
1 -13 17 12 0
1 17 7 -3 0
1 -2 7 -5 0
1 -14 7 4 0
1 -17 -8 -1 0
1 4 1 -2 0
1 10 -3 -7 0
1 -12 16 -14 0
1 -15 -7 -6 0
1 16 8 18 0
1 6 14 3 0
