c generated by gen_benchmarks.py seed=1
c family=random_3sat weighted=false width=3 ratio=4.17
c revised DIMACS WCNF: h marks hard clauses; integer prefixes are soft weights
1 -11 10 6 0
1 -9 12 17 0
1 18 -9 -5 0
1 4 8 3 0
1 13 3 -14 0
1 5 4 17 0
1 -11 -4 8 0
1 14 18 -15 0
1 -5 7 -9 0
1 16 -14 -12 0
1 -14 -13 1 0
1 10 5 -14 0
1 15 -18 14 0
1 -4 -13 -12 0
1 18 -7 3 0
1 18 -3 -9 0
1 -7 -11 14 0
1 -7 11 -12 0
1 1 2 -15 0
1 -9 7 -18 0
1 6 -14 18 0
1 10 -1 5 0
1 -5 -9 17 0
1 -12 -3 -13 0
1 -10 16 -4 0
1 -8 -17 16 0
1 14 4 -3 0
1 10 -1 -9 0
1 6 -1 16 0
1 18 4 -12 0
1 -5 -16 17 0
1 1 15 -3 0
1 17 13 16 0
1 -15 4 16 0
1 11 7 9 0
1 9 -12 -14 0
1 4 5 -10 0
1 -10 -1 -14 0
1 -11 -8 14 0
1 -9 -5 -17 0
1 -13 -5 -8 0
1 -10 -8 -3 0
1 2 10 -7 0
1 -1 -17 2 0
1 13 -6 -11 0
1 5 4 -1 0
1 -10 -15 9 0
1 -1 11 6 0
1 6 -2 -12 0
1 11 -12 14 0
1 -11 -1 9 0
1 11 -8 -12 0
1 12 3 9 0
1 2 11 1 0
1 18 12 -1 0
1 6 1 -2 0
1 -11 14 -15 0
1 -2 -4 7 0
1 -11 16 18 0
1 -12 17 -8 0
1 -7 11 17 0
1 12 13 9 0
1 -10 1 4 0
1 -12 11 3 0
1 17 -15 -6 0
1 -1 11 9 0
1 -1 8 4 0
1 -18 8 -14 0
1 12 15 -1 0
1 11 1 6 0
1 6 -7 -17 0
1 7 13 12 0
1 12 11 -15 0
1 -11 -12 -1 0
1 -16 -9 13 0
