c generated by gen_benchmarks.py seed=1
c family=random_3sat weighted=true width=3 ratio=4.17
c revised DIMACS WCNF: h marks hard clauses; integer prefixes are soft weights
3 18 10 11 0
3 -6 15 -14 0
5 -12 -3 7 0
1 -15 -9 -16 0
5 17 15 -4 0
5 13 -1 10 0
4 -8 -12 -4 0
1 6 -7 15 0
3 18 -14 9 0
5 -18 12 -3 0
1 -4 11 -10 0
2 -6 -17 -8 0
2 10 4 15 0
1 2 -8 -9 0
4 -7 -5 -1 0
5 5 2 -13 0
4 14 -13 3 0
2 -13 -4 -11 0
5 7 8 -10 0
4 -8 -3 12 0
3 -13 -2 8 0
2 -17 7 11 0
1 -11 -3 -2 0
1 -7 -3 -11 0
3 15 18 -11 0
3 -15 -1 6 0
5 12 -4 9 0
2 -1 18 -9 0
3 14 5 -17 0
3 -15 6 10 0
3 2 17 3 0
3 -14 2 5 0
1 5 -18 11 0
3 4 -9 -11 0
5 -14 -3 2 0
5 -17 12 -7 0
2 17 -11 5 0
2 3 -5 -13 0
1 -9 -8 11 0
3 -18 13 9 0
3 9 -17 -11 0
3 1 6 8 0
5 -10 -11 1 0
3 -9 5 6 0
3 9 -7 10 0
5 7 -12 17 0
4 15 -17 -4 0
4 -3 18 1 0
4 17 5 -11 0
5 -5 15 10 0
2 -16 1 -15 0
4 -17 3 10 0
1 -2 -5 4 0
5 13 10 -4 0
3 7 12 16 0
1 -4 -7 11 0
2 5 -9 12 0
2 -11 16 -12 0
4 -4 -18 3 0
5 18 -3 4 0
4 15 1 2 0
5 -17 -16 -2 0
2 11 5 -12 0
4 -4 -8 13 0
3 -12 6 17 0
3 18 -10 13 0
2 -15 -17 1 0
4 -16 -8 1 0
2 -9 -14 10 0
3 12 -8 -7 0
3 8 -11 -18 0
2 17 7 -15 0
2 -9 11 -15 0
2 5 -16 11 0
1 2 -3 -14 0
