c generated by gen_benchmarks.py seed=0
c family=random_3sat weighted=true width=3 ratio=4.17
c revised DIMACS WCNF: h marks hard clauses; integer prefixes are soft weights
2 10 2 13 0
5 12 -11 1 0
3 -11 -18 6 0
1 -13 6 -11 0
4 17 -18 -3 0
3 -18 9 17 0
4 -11 -14 -8 0
2 11 14 5 0
1 -11 -7 14 0
4 -5 -18 -8 0
1 12 15 2 0
4 3 -6 12 0
3 8 12 4 0
4 17 -10 13 0
1 3 15 1 0
4 -9 11 16 0
5 -3 11 7 0
4 5 -14 -13 0
1 18 -1 -2 0
3 14 -4 -12 0
5 11 -4 16 0
3 -5 -10 -9 0
2 -16 2 -5 0
1 13 9 3 0
4 -10 17 5 0
5 -17 -6 -2 0
3 -12 8 14 0
2 10 5 16 0
5 11 -1 18 0
5 -6 8 -15 0
3 -14 6 -5 0
3 -12 -5 -18 0
1 11 -1 -6 0
2 2 16 6 0
2 -13 8 11 0
4 -11 5 -3 0
4 5 6 -13 0
1 -12 1 5 0
4 4 14 -7 0
2 -3 -12 -6 0
2 -14 -8 13 0
1 -7 5 10 0
3 2 9 16 0
5 6 -17 -14 0
2 -12 3 16 0
3 4 15 -1 0
3 -9 13 -10 0
5 -6 -13 4 0
4 -3 -5 -11 0
5 -3 4 7 0
2 -11 -8 18 0
3 -13 8 -4 0
2 -18 14 -6 0
2 -4 -9 8 0
3 10 -8 -17 0
5 -10 6 4 0
2 8 -15 7 0
5 -4 -2 -5 0
2 13 -15 -12 0
5 16 9 12 0
3 -10 1 2 0
5 -2 11 -17 0
4 -2 18 9 0
3 4 -11 -9 0
5 -2 13 8 0
2 -11 8 5 0
2 16 12 18 0
1 -1 10 -9 0
1 -14 17 10 0
3 -2 8 -12 0
3 -6 17 -1 0
2 -16 13 7 0
5 -7 1 -16 0
1 18 15 -2 0
4 -2 -14 -13 0
