c family=random_3sat weighted=false nvars=220 seed=20261928
c generated by calibrate.py; revised DIMACS WCNF
c h marks a hard clause; an integer prefix is a soft weight
1 158 -123 95 0
1 164 163 -186 0
1 191 -144 -106 0
1 180 -169 8 0
1 9 196 -12 0
1 151 -164 166 0
1 50 131 57 0
1 86 -10 -144 0
1 9 186 197 0
1 -6 139 -202 0
1 -59 -34 -136 0
1 90 150 -58 0
1 -92 156 -191 0
1 137 -6 -80 0
1 203 -158 189 0
1 112 33 -97 0
1 -1 46 -67 0
1 -152 -4 60 0
1 -138 51 217 0
1 118 -50 79 0
1 180 84 144 0
1 -139 60 -191 0
1 51 91 156 0
1 -26 154 -118 0
1 -115 -160 -58 0
1 -61 -75 -214 0
1 51 -150 66 0
1 55 125 69 0
1 27 -163 -194 0
1 38 141 -156 0
1 125 -2 -186 0
1 -91 103 79 0
1 172 -42 -110 0
1 -62 -210 -37 0
1 171 -139 -180 0
1 168 -119 93 0
1 -210 -176 -187 0
1 203 -197 182 0
1 201 85 -204 0
1 -209 128 134 0
1 77 29 147 0
1 -85 -176 -29 0
1 33 57 -142 0
1 75 66 113 0
1 -3 93 -126 0
1 -75 -160 144 0
1 45 129 132 0
1 133 -118 -18 0
1 -54 -124 99 0
1 -145 -199 -192 0
1 162 40 140 0
1 -128 -160 -27 0
1 7 -175 -31 0
1 -101 -195 -67 0
1 70 15 -4 0
1 -71 4 -161 0
1 -58 -146 -47 0
1 -18 94 -11 0
1 15 10 -162 0
1 -20 -162 124 0
1 -156 -60 -110 0
1 -195 -46 210 0
1 -2 -214 -24 0
1 -121 -126 -38 0
1 141 -21 66 0
1 -48 27 1 0
1 -5 -197 -172 0
1 136 212 -72 0
1 -99 164 206 0
1 195 82 143 0
1 -61 140 85 0
1 -168 13 -30 0
1 -80 -88 165 0
1 147 -161 -3 0
1 -130 -192 179 0
1 31 136 43 0
1 129 -38 208 0
1 -31 -42 103 0
1 175 191 -69 0
1 65 63 25 0
1 -179 -161 -22 0
1 -174 153 133 0
1 -43 83 1 0
1 46 -206 -187 0
1 -132 -186 -21 0
1 212 -194 76 0
1 -38 147 108 0
1 -191 160 81 0
1 52 -57 -195 0
1 -91 112 165 0
1 128 -54 4 0
1 126 48 140 0
1 -130 123 -75 0
1 147 -154 -179 0
1 -208 -162 -198 0
1 -163 120 -141 0
1 -60 184 212 0
1 -189 -56 -129 0
1 154 170 -189 0
1 -187 219 -82 0
1 -111 179 183 0
1 -5 -54 -48 0
1 219 40 -106 0
1 -18 29 -67 0
1 105 189 -164 0
1 -2 95 147 0
1 66 198 10 0
1 111 -136 106 0
1 219 -200 187 0
1 61 5 -32 0
1 109 -2 37 0
1 -82 -220 148 0
1 3 -129 219 0
1 137 -100 -210 0
1 -216 -25 -41 0
1 -194 25 -52 0
1 35 -193 -108 0
1 -73 107 190 0
1 52 -171 216 0
1 160 79 -183 0
1 -78 82 25 0
1 -190 -152 122 0
1 209 -15 -100 0
1 45 -151 217 0
1 -102 -171 41 0
1 121 62 -31 0
1 -187 -217 62 0
1 -202 -196 205 0
1 217 38 -136 0
1 101 211 -190 0
1 186 -78 -95 0
1 65 9 -183 0
1 -38 -169 62 0
1 -69 49 -68 0
1 128 -28 -49 0
1 84 163 164 0
1 122 212 61 0
1 126 213 71 0
1 154 -105 -28 0
1 141 146 152 0
1 -164 -118 80 0
1 -80 182 6 0
1 13 65 117 0
1 14 -203 175 0
1 -69 -205 188 0
1 -189 34 -37 0
1 174 -35 -48 0
1 -164 -108 103 0
1 -177 -180 91 0
1 80 -95 -117 0
1 48 131 19 0
1 -31 -56 49 0
1 -48 66 -105 0
1 163 -122 92 0
1 54 -98 190 0
1 100 56 171 0
1 -197 172 79 0
1 -56 -98 109 0
1 -150 46 -48 0
1 -91 160 216 0
1 51 99 -32 0
1 -200 -194 122 0
1 12 61 75 0
1 -130 18 -84 0
1 157 199 -83 0
1 -176 80 143 0
1 -180 71 -99 0
1 -22 98 -139 0
1 -30 110 -204 0
1 -66 163 150 0
1 5 69 -166 0
1 63 -28 -94 0
1 -126 -105 -157 0
1 203 -186 205 0
1 -43 -68 27 0
1 33 180 -178 0
1 171 61 43 0
1 6 64 -58 0
1 -211 25 -86 0
1 151 -116 113 0
1 89 133 190 0
1 118 179 -12 0
1 -22 127 -8 0
1 -190 -135 30 0
1 158 -29 -157 0
1 -59 209 97 0
1 170 123 140 0
1 -171 -6 -137 0
1 170 100 -169 0
1 -34 -68 -5 0
1 45 -78 47 0
1 26 213 197 0
1 -112 -212 84 0
1 -148 -163 -160 0
1 16 215 5 0
1 9 81 220 0
1 -63 -56 -119 0
1 153 161 77 0
1 132 7 114 0
1 -107 210 192 0
1 40 63 -116 0
1 216 -82 6 0
1 -206 -12 154 0
1 172 -32 -192 0
1 -18 55 1 0
1 121 -28 -39 0
1 -79 158 115 0
1 -152 68 91 0
1 -145 -95 32 0
1 -141 19 -220 0
1 -16 102 -140 0
1 103 208 114 0
1 73 82 56 0
1 218 152 -133 0
1 16 22 46 0
1 20 -219 -81 0
1 15 11 -73 0
1 34 -53 71 0
1 -129 145 171 0
1 215 -123 81 0
1 150 -115 -128 0
1 117 -27 151 0
1 219 -79 173 0
1 53 -48 -207 0
1 68 128 -36 0
1 -175 -147 -129 0
1 173 132 83 0
1 -59 147 -171 0
1 51 -50 131 0
1 -115 -208 58 0
1 -122 -25 160 0
1 89 -204 -58 0
1 -164 179 -172 0
1 98 -107 -123 0
1 36 126 -89 0
1 158 -34 -160 0
1 14 -202 -143 0
1 -120 112 200 0
1 127 -121 178 0
1 -141 27 186 0
1 142 51 39 0
1 53 -204 89 0
1 217 83 155 0
1 -126 78 102 0
1 -26 -94 21 0
1 145 -82 -116 0
1 134 129 163 0
1 206 210 -94 0
1 117 82 182 0
1 -48 -57 -211 0
1 -118 199 -166 0
1 125 148 78 0
1 -87 -19 -150 0
1 171 -50 -156 0
1 57 199 -20 0
1 -29 49 90 0
1 -48 -47 188 0
1 9 28 -176 0
1 -208 50 -16 0
1 133 59 14 0
1 17 91 162 0
1 -177 24 22 0
1 47 53 111 0
1 54 113 -82 0
1 110 58 121 0
1 -132 -117 -218 0
1 50 71 -23 0
1 130 174 51 0
1 -128 -42 -48 0
1 57 83 195 0
1 -47 152 204 0
1 -154 -58 101 0
1 41 -189 77 0
1 99 -119 54 0
1 118 122 82 0
1 1 161 113 0
1 -4 56 212 0
1 -129 -101 165 0
1 -101 202 -200 0
1 -23 -116 177 0
1 167 -49 45 0
1 141 -24 -133 0
1 173 -67 82 0
1 149 -41 144 0
1 -79 -26 158 0
1 75 -163 -136 0
1 71 153 -121 0
1 101 -212 -202 0
1 121 -187 111 0
1 30 -131 -22 0
1 -202 -55 -25 0
1 122 200 -19 0
1 -60 124 -161 0
1 70 59 153 0
1 139 -194 -29 0
1 -201 -43 132 0
1 1 8 191 0
1 145 194 -79 0
1 5 -69 -32 0
1 183 168 -33 0
1 -128 171 22 0
1 152 155 130 0
1 -70 -31 11 0
1 140 -100 -128 0
1 156 -166 -196 0
1 -78 169 -143 0
1 184 95 -96 0
1 201 88 44 0
1 -124 50 212 0
1 112 -41 -109 0
1 177 -118 60 0
1 -204 163 115 0
1 21 198 -149 0
1 13 79 -175 0
1 198 86 104 0
1 57 -145 -42 0
1 143 -48 13 0
1 151 -175 125 0
1 32 -213 41 0
1 -3 64 -34 0
1 -48 -32 -26 0
1 -37 45 -17 0
1 207 -5 115 0
1 156 32 68 0
1 -139 -48 -69 0
1 -111 -145 105 0
1 188 102 -70 0
1 114 162 -130 0
1 -113 -137 145 0
1 -67 90 42 0
1 58 -182 172 0
1 110 209 75 0
1 -14 -18 126 0
1 88 -60 49 0
1 -99 141 65 0
1 194 -215 7 0
1 -189 -202 124 0
1 157 6 -38 0
1 -77 100 -115 0
1 120 80 -172 0
1 -149 130 188 0
1 105 116 25 0
1 162 63 9 0
1 -155 112 -13 0
1 97 -41 150 0
1 -93 -146 -188 0
1 119 -72 -180 0
1 -179 143 6 0
1 3 -173 -210 0
1 39 -4 -161 0
1 -125 -103 210 0
1 167 -195 93 0
1 6 -70 -64 0
1 29 63 194 0
1 119 42 -105 0
1 122 -203 -90 0
1 33 -64 110 0
1 -208 -86 -123 0
1 7 -38 27 0
1 -85 95 153 0
1 69 114 -184 0
1 -131 -3 -110 0
1 -156 -213 -14 0
1 -206 -119 -107 0
1 91 -101 -11 0
1 -46 -3 184 0
1 46 8 -112 0
1 -113 149 155 0
1 32 -19 -156 0
1 38 -89 -36 0
1 120 198 20 0
1 -7 63 -207 0
1 111 58 126 0
1 189 -65 188 0
1 -161 -83 145 0
1 -14 170 -6 0
1 177 106 122 0
1 205 -59 170 0
1 -178 123 217 0
1 -161 146 -127 0
1 -52 -115 68 0
1 20 -118 -46 0
1 131 116 19 0
1 -66 -112 -140 0
1 -164 29 190 0
1 218 -59 57 0
1 -2 66 -110 0
1 19 -146 138 0
1 -148 -185 -97 0
1 -123 -31 186 0
1 -26 -187 38 0
1 -201 -192 218 0
1 112 -115 30 0
1 155 206 140 0
1 -71 -34 -112 0
1 -125 -107 -196 0
1 155 -203 123 0
1 -34 125 -52 0
1 35 150 162 0
1 183 -126 -37 0
1 -203 -29 200 0
1 29 218 201 0
1 59 58 27 0
1 -14 91 122 0
1 60 123 103 0
1 -74 49 71 0
1 162 171 197 0
1 -75 9 23 0
1 -97 6 -12 0
1 180 -126 188 0
1 -91 34 -170 0
1 146 118 211 0
1 -104 -117 -120 0
1 -80 -180 -205 0
1 -191 94 212 0
1 -144 -211 41 0
1 -201 -181 -58 0
1 -96 -61 55 0
1 197 162 13 0
1 -175 118 -203 0
1 -105 -97 219 0
1 -212 96 -115 0
1 96 177 185 0
1 -2 54 -182 0
1 26 154 5 0
1 -68 207 -126 0
1 60 -116 -213 0
1 122 -17 36 0
1 -89 21 66 0
1 -206 -141 160 0
1 -13 -160 -80 0
1 -197 -184 52 0
1 -77 -87 166 0
1 -209 -74 -170 0
1 50 -18 126 0
1 75 52 179 0
1 -74 -186 31 0
1 -188 -105 10 0
1 -198 -107 117 0
1 50 -191 73 0
1 34 48 -79 0
1 -22 144 -145 0
1 -96 -68 189 0
1 14 -152 -195 0
1 -127 -167 -126 0
1 -53 -4 -7 0
1 166 -115 -205 0
1 -48 -13 -153 0
1 75 23 -213 0
1 -63 -99 -7 0
1 96 120 -201 0
1 -144 24 -95 0
1 110 157 -214 0
1 95 -117 -188 0
1 -111 -153 -58 0
1 -6 -156 14 0
1 -15 179 102 0
1 -93 -197 82 0
1 -66 -16 -154 0
1 -90 198 -125 0
1 141 -108 156 0
1 216 -54 34 0
1 -206 2 59 0
1 103 -99 142 0
1 175 203 80 0
1 120 -214 121 0
1 -84 150 41 0
1 137 -49 -152 0
1 -163 -124 -110 0
1 80 -13 -3 0
1 -34 206 -169 0
1 128 49 -77 0
1 -215 101 -130 0
1 -147 -101 -207 0
1 -24 154 -44 0
1 -155 70 41 0
1 -77 69 -192 0
1 144 -170 -67 0
1 88 116 191 0
1 -201 192 80 0
1 53 217 -136 0
1 195 -199 157 0
1 60 -159 -155 0
1 5 -127 16 0
1 22 -152 62 0
1 -19 49 119 0
1 -52 99 -28 0
1 216 -51 -73 0
1 -24 148 -176 0
1 -136 -57 -34 0
1 22 52 119 0
1 -162 174 -184 0
1 -84 -218 92 0
1 -22 88 -137 0
1 175 -220 -121 0
1 200 169 -175 0
1 -219 -134 27 0
1 153 105 208 0
1 168 -103 -55 0
1 141 -113 -58 0
1 -78 110 -133 0
1 57 -16 -78 0
1 166 -147 -25 0
1 143 -93 38 0
1 200 10 -127 0
1 18 -36 -152 0
1 132 -203 4 0
1 -52 -48 -129 0
1 -210 128 -119 0
1 219 177 -174 0
1 -187 23 190 0
1 49 168 -76 0
1 23 106 -98 0
1 197 156 -144 0
1 182 123 -210 0
1 183 217 211 0
1 -167 -206 104 0
1 -132 -144 19 0
1 34 -73 -86 0
1 116 -160 147 0
1 201 95 -146 0
1 115 18 171 0
1 -59 -56 -35 0
1 -75 -112 -100 0
1 183 48 -75 0
1 -180 74 133 0
1 -46 -171 -29 0
1 68 219 -45 0
1 207 -105 -2 0
1 128 70 27 0
1 4 -9 22 0
1 199 82 -39 0
1 175 108 119 0
1 -187 128 -63 0
1 67 110 -132 0
1 -44 -217 -38 0
1 -30 -5 -163 0
1 97 -21 100 0
1 201 93 155 0
1 67 128 -11 0
1 90 57 -58 0
1 3 108 -128 0
1 -216 132 -58 0
1 51 -213 -38 0
1 157 51 -68 0
1 5 38 88 0
1 158 190 -117 0
1 56 -89 -198 0
1 -156 -216 47 0
1 -145 12 -208 0
1 -7 89 47 0
1 7 119 -133 0
1 131 82 -127 0
1 -198 32 17 0
1 -205 64 138 0
1 -125 -93 94 0
1 -146 -33 155 0
1 -78 124 167 0
1 180 -59 45 0
1 203 122 206 0
1 -28 4 -130 0
1 -142 -90 32 0
1 -148 -1 -152 0
1 -13 -53 150 0
1 -180 -111 -125 0
1 83 127 -133 0
1 82 -87 147 0
1 -74 41 -207 0
1 -94 -171 211 0
1 -33 79 190 0
1 205 108 -79 0
1 -206 -42 13 0
1 51 -13 204 0
1 75 106 -36 0
1 -184 28 -1 0
1 -17 151 114 0
1 148 209 113 0
1 49 86 70 0
1 -207 122 24 0
1 181 -88 206 0
1 206 -119 -43 0
1 63 -200 126 0
1 8 -7 -38 0
1 149 11 -203 0
1 -115 154 -37 0
1 119 56 113 0
1 95 -90 -213 0
1 56 135 -40 0
1 5 60 196 0
1 14 219 5 0
1 209 72 199 0
1 9 -45 -153 0
1 -51 -208 168 0
1 -54 -171 -137 0
1 181 -182 -39 0
1 68 126 140 0
1 -169 -111 97 0
1 44 92 -208 0
1 -86 -156 -65 0
1 -136 -22 -220 0
1 -46 174 -31 0
1 -171 -60 -52 0
1 -204 -22 139 0
1 51 52 -209 0
1 -190 -175 166 0
1 -162 -109 -50 0
1 -8 59 -36 0
1 146 35 -82 0
1 136 175 2 0
1 -34 -115 102 0
1 68 208 -173 0
1 147 -207 -206 0
1 -16 71 35 0
1 -92 67 13 0
1 -97 175 202 0
1 -66 -81 -199 0
1 -118 76 -87 0
1 149 -204 -148 0
1 4 -143 2 0
1 -86 7 -197 0
1 70 211 -46 0
1 -188 90 102 0
1 46 -90 120 0
1 -105 -101 -19 0
1 -30 76 127 0
1 -136 74 -182 0
1 -198 -48 216 0
1 -190 -120 -51 0
1 -72 175 169 0
1 149 -67 12 0
1 114 131 143 0
1 -51 -101 18 0
1 165 -187 -91 0
1 -135 -190 -39 0
1 122 68 -209 0
1 -30 109 -13 0
1 8 -14 -133 0
1 36 -214 95 0
1 -181 -171 184 0
1 41 -191 113 0
1 213 119 -168 0
1 -83 42 -50 0
1 119 -182 -153 0
1 67 -214 -176 0
1 97 158 70 0
1 -181 -90 -33 0
1 -114 60 91 0
1 -22 72 5 0
1 189 16 -198 0
1 -64 157 40 0
1 -41 104 9 0
1 -154 -139 -5 0
1 -53 218 -131 0
1 45 -201 -97 0
1 -87 -142 -61 0
1 -166 -61 -79 0
1 180 -161 165 0
1 -219 -214 83 0
1 -75 161 143 0
1 -215 158 190 0
1 137 -95 32 0
1 92 -124 -177 0
1 -216 38 -205 0
1 18 -47 205 0
1 -24 53 45 0
1 -113 191 149 0
1 -196 31 -18 0
1 7 22 -216 0
1 -164 8 -151 0
1 -92 138 -26 0
1 66 172 -125 0
1 -162 -41 1 0
1 -82 -139 -120 0
1 10 171 -139 0
1 57 -202 144 0
1 -23 53 -171 0
1 -164 -152 17 0
1 28 -114 116 0
1 98 -211 -4 0
1 83 -103 -150 0
1 -123 -197 156 0
1 -163 -74 120 0
1 -218 153 -168 0
1 -139 48 -194 0
1 -13 90 -182 0
1 -146 189 24 0
1 -117 -200 46 0
1 30 -151 69 0
1 50 116 -136 0
1 -60 -178 -115 0
1 215 -143 182 0
1 -9 -199 -158 0
1 129 -78 26 0
1 -39 209 -52 0
1 28 155 -71 0
1 204 -52 -46 0
1 161 -200 23 0
1 -169 61 -99 0
1 192 -41 107 0
1 -61 -205 -132 0
1 68 -149 133 0
1 148 92 -36 0
1 -45 -1 137 0
1 65 61 180 0
1 197 171 152 0
1 151 -205 -11 0
1 159 -167 160 0
1 -107 77 89 0
1 -122 -200 105 0
1 147 170 185 0
1 -20 173 174 0
1 -165 -218 214 0
1 114 44 68 0
1 1 -66 -219 0
1 89 -128 91 0
1 75 38 147 0
1 -205 191 -179 0
1 147 173 29 0
1 -62 -7 19 0
1 12 -119 129 0
1 32 16 -217 0
1 -163 -27 -52 0
1 -123 192 32 0
1 2 146 -135 0
1 189 -18 6 0
1 158 190 189 0
1 -143 -30 167 0
1 51 162 45 0
1 -26 -171 -25 0
1 -207 201 -177 0
1 80 162 -154 0
1 66 -111 -104 0
1 -173 141 134 0
1 172 -209 68 0
1 21 147 111 0
1 172 116 -82 0
1 63 92 -150 0
1 33 -28 73 0
1 136 20 -30 0
1 86 152 66 0
1 -197 -155 106 0
1 -192 -185 -147 0
1 154 219 -200 0
1 100 -114 -155 0
1 188 -207 -113 0
1 -209 195 47 0
1 -127 6 2 0
1 -147 6 -202 0
1 -216 199 161 0
1 159 -198 69 0
1 57 -151 -10 0
1 -19 -72 -117 0
1 75 207 19 0
1 147 108 75 0
1 168 -109 18 0
1 87 -166 -85 0
1 133 -125 96 0
1 128 -140 131 0
1 124 160 -121 0
1 52 -27 -130 0
1 -23 -96 -111 0
1 161 190 -3 0
1 -26 90 97 0
1 91 65 140 0
1 182 -166 178 0
1 -182 -136 67 0
1 -192 190 39 0
1 -87 52 -24 0
1 -23 -70 53 0
1 185 49 178 0
1 122 -17 71 0
1 -45 -49 110 0
1 133 -162 -132 0
1 95 145 124 0
1 -1 88 119 0
1 49 115 -124 0
1 -18 -219 167 0
1 -185 -204 129 0
1 -96 185 87 0
1 219 -54 -68 0
1 -76 -167 -26 0
1 158 -171 -175 0
1 -26 -114 87 0
1 127 -216 83 0
1 48 145 188 0
1 135 126 206 0
1 -121 -201 -83 0
1 45 13 -176 0
1 -16 -135 -124 0
1 133 144 66 0
1 16 -36 -70 0
1 -76 -74 6 0
1 -131 108 77 0
1 106 -206 149 0
1 -127 11 -42 0
1 130 -68 168 0
1 83 -58 -201 0
1 -156 134 -36 0
1 -29 -113 63 0
1 71 -104 8 0
1 -207 -56 25 0
1 -16 102 -10 0
1 157 108 -111 0
1 144 -182 73 0
1 42 171 44 0
1 -116 -213 173 0
1 24 -130 -220 0
1 -93 116 -172 0
1 71 164 4 0
1 160 -213 -90 0
1 -132 29 40 0
1 -129 -196 67 0
1 78 -89 64 0
1 -126 98 -9 0
1 57 -194 28 0
1 139 148 -140 0
1 -146 -79 -171 0
1 20 -133 -188 0
1 187 -161 3 0
1 136 70 204 0
1 -22 -3 191 0
1 24 92 107 0
1 170 -139 45 0
1 96 -184 163 0
1 -153 47 40 0
1 149 -214 -125 0
1 -183 79 113 0
1 13 -94 -78 0
1 -64 115 -178 0
1 -188 -116 153 0
1 66 -171 -125 0
1 -63 -95 163 0
1 -134 219 -165 0
1 -190 44 -207 0
1 24 -146 151 0
1 -21 161 55 0
1 28 -179 -219 0
1 -116 61 31 0
1 -11 -67 75 0
1 -174 99 44 0
1 -82 -214 70 0
1 -35 144 161 0
1 -194 -189 163 0
1 33 37 184 0
1 191 137 -52 0
1 166 -190 -73 0
1 -196 106 -9 0
1 16 -66 3 0
1 134 51 161 0
1 -42 46 97 0
1 130 -134 28 0
1 163 213 92 0
1 -67 -98 70 0
1 87 -44 58 0
1 -218 -199 -116 0
1 140 -57 -45 0
1 186 -173 86 0
1 -137 -215 -2 0
1 -151 76 88 0
1 -190 105 -65 0
1 37 -219 -186 0
1 -186 165 -52 0
1 138 -212 92 0
1 -146 196 -1 0
1 27 -104 -133 0
1 136 10 190 0
1 200 72 35 0
1 -208 179 -149 0
1 -114 159 100 0
1 211 -188 -146 0
1 -166 98 97 0
1 42 -156 217 0
1 -102 4 -61 0
1 -8 123 33 0
1 -74 7 -126 0
1 19 -169 111 0
1 98 56 -59 0
1 152 -211 119 0
1 165 -46 54 0
1 -211 41 -215 0
1 22 -49 -66 0
1 -72 80 -64 0
1 47 -93 20 0
1 -38 203 145 0
1 -181 -152 169 0
1 179 -177 -70 0
1 138 95 186 0
1 129 -59 -143 0
1 139 -159 -25 0
1 -43 2 181 0
1 -3 96 220 0
1 125 214 24 0
1 -64 21 141 0
1 50 56 57 0
1 169 115 2 0
1 -177 -220 -73 0
1 -198 -36 -31 0
1 64 -98 58 0
1 58 -172 104 0
1 192 -85 -150 0
1 76 -112 151 0
1 164 -113 -143 0
1 153 47 97 0
1 -168 49 46 0
1 80 180 57 0
1 108 200 176 0
1 25 79 91 0
1 163 -73 -20 0
1 -12 -208 33 0
1 -153 36 -130 0
1 111 -141 108 0
1 -44 -110 81 0
1 -15 -69 -108 0
1 -184 173 -155 0
1 118 175 -135 0
1 -95 106 -77 0
1 -64 -150 69 0
1 72 9 -71 0
1 112 168 185 0
1 -7 66 -64 0
1 -148 -194 -170 0
1 -201 104 -105 0
1 -216 152 87 0
1 40 -143 -7 0
