c family=random_3sat weighted=true nvars=594 seed=20382495
c generated by calibrate.py; revised DIMACS WCNF
c h marks a hard clause; an integer prefix is a soft weight
2 315 -489 475 0
6 -211 -185 -486 0
3 -409 -36 -94 0
4 273 -565 503 0
4 395 184 91 0
7 553 511 370 0
4 401 -534 -382 0
9 -83 537 283 0
1 -179 -29 -226 0
4 568 -401 196 0
7 112 -335 -215 0
3 -71 346 407 0
7 -111 -277 -581 0
4 -434 -341 498 0
6 -149 -520 -500 0
6 79 -544 -140 0
2 193 158 -150 0
9 -67 449 -357 0
6 -524 202 -371 0
1 175 328 -363 0
7 -435 461 351 0
2 250 -527 445 0
5 -266 -434 260 0
3 295 -527 -107 0
1 93 104 -423 0
4 -355 131 -111 0
4 -366 497 -560 0
4 -86 465 -351 0
2 195 -356 549 0
4 -352 496 -47 0
4 456 204 -567 0
4 -159 396 456 0
9 138 -276 -16 0
2 -76 482 161 0
3 -433 -225 -543 0
5 326 -144 -535 0
4 185 -497 -537 0
5 -86 -241 314 0
1 559 -48 128 0
2 33 -423 -146 0
7 -50 -97 -145 0
5 77 -181 -301 0
3 111 -434 -76 0
6 472 549 446 0
7 -178 499 -450 0
2 -524 -366 -460 0
2 330 68 272 0
8 -280 -495 536 0
6 -101 110 -71 0
9 270 -65 59 0
2 -110 332 16 0
7 263 -251 -352 0
8 321 -574 546 0
3 340 -63 534 0
3 -107 454 -394 0
3 592 53 368 0
9 306 587 533 0
6 61 275 -123 0
6 191 546 -210 0
5 -271 48 -392 0
9 -420 445 -231 0
5 303 575 358 0
5 415 -458 186 0
6 -223 127 419 0
4 307 -465 583 0
1 14 205 338 0
6 -538 -224 332 0
4 -74 -92 -355 0
4 -406 -37 380 0
8 108 121 479 0
6 540 273 143 0
7 -399 -146 -245 0
6 513 40 -252 0
6 20 113 -331 0
6 392 -166 -365 0
9 -350 39 -206 0
4 372 -537 336 0
8 443 -101 -402 0
6 -550 380 131 0
1 -327 410 -110 0
2 331 553 364 0
6 555 66 -14 0
6 -393 -173 7 0
2 -69 55 -295 0
1 -494 -174 -220 0
4 167 -564 -540 0
9 385 384 457 0
9 23 299 556 0
5 234 -147 220 0
6 117 -65 60 0
4 -54 -551 -270 0
8 -306 448 289 0
4 480 -6 36 0
5 -91 219 -434 0
3 445 -349 458 0
6 -74 -273 301 0
2 532 -570 189 0
3 248 -534 495 0
2 77 -204 21 0
2 284 20 311 0
6 534 -296 28 0
3 26 -57 -396 0
1 483 -92 -136 0
6 -213 530 588 0
1 -522 47 -164 0
7 -391 521 -579 0
9 -443 358 -309 0
5 528 -427 -163 0
4 423 -306 178 0
1 344 -495 149 0
5 -332 -593 -541 0
1 -458 519 -94 0
9 -519 181 557 0
8 -16 141 -304 0
3 194 425 158 0
1 -25 -419 239 0
3 -38 -554 312 0
4 -9 -406 467 0
5 -313 -70 -391 0
5 -53 -266 -464 0
1 -591 -242 -117 0
1 -166 547 491 0
5 160 -482 126 0
6 -164 -29 497 0
9 465 156 154 0
2 396 218 -441 0
1 -225 171 167 0
4 418 -209 -494 0
9 456 -39 -241 0
6 -73 -21 -538 0
2 2 404 -345 0
4 -391 49 280 0
6 536 -586 76 0
3 -368 -513 564 0
1 414 426 98 0
2 -388 514 295 0
3 186 -422 341 0
9 -281 -192 -162 0
2 -186 478 -167 0
6 501 -340 525 0
1 -251 -35 -12 0
1 -156 -94 553 0
9 69 551 -192 0
1 -24 258 567 0
9 -344 -509 -506 0
9 555 412 -446 0
4 -30 -591 199 0
3 -571 459 377 0
1 134 19 -436 0
7 433 233 318 0
1 -415 -222 135 0
8 363 581 -494 0
7 278 -523 428 0
5 -499 552 -163 0
1 -512 -417 -121 0
1 190 -546 -16 0
2 -400 -288 -82 0
6 503 209 -280 0
1 313 556 158 0
7 -550 428 457 0
2 -348 301 -3 0
4 -576 267 41 0
9 446 -502 -63 0
7 39 136 277 0
6 506 328 493 0
4 468 586 19 0
6 439 120 -149 0
5 7 -445 -73 0
3 481 -187 -356 0
3 196 51 335 0
2 3 -130 -394 0
7 -120 -267 -569 0
5 -504 371 -319 0
9 -327 -405 110 0
6 -176 -5 250 0
2 23 24 -36 0
8 -363 -536 261 0
9 -227 -589 367 0
6 -518 158 -115 0
4 -539 149 -96 0
5 580 -143 -306 0
3 512 -247 -24 0
8 402 -289 -294 0
5 209 325 -491 0
9 -376 119 554 0
1 17 593 -190 0
9 -129 402 -414 0
1 -189 -558 -553 0
9 -580 382 398 0
8 83 -507 116 0
6 496 484 15 0
7 -353 165 426 0
5 -100 -490 -277 0
6 -524 -143 452 0
2 -505 269 -260 0
7 348 -272 119 0
3 -558 366 95 0
2 -567 456 440 0
1 183 495 -594 0
8 187 -180 264 0
2 413 579 -483 0
6 -518 -402 -11 0
7 417 444 227 0
6 55 418 61 0
7 -438 -409 218 0
7 -564 271 -594 0
1 106 12 127 0
4 -406 372 -550 0
9 266 367 -447 0
7 591 -292 119 0
7 -210 118 495 0
7 117 20 -113 0
5 -22 -398 300 0
6 101 408 299 0
5 -375 114 -181 0
2 166 476 460 0
8 80 574 -317 0
1 -226 520 -516 0
6 -295 128 518 0
5 -237 563 243 0
4 118 296 342 0
1 147 300 -343 0
3 173 -548 -89 0
8 -449 158 166 0
9 275 533 593 0
7 -312 563 79 0
4 370 -540 329 0
1 536 -236 -407 0
3 -20 -452 42 0
3 9 44 278 0
8 -344 413 -349 0
1 -224 487 30 0
7 -175 390 570 0
8 582 547 -63 0
9 -420 363 284 0
7 373 -382 -203 0
4 -260 272 -139 0
1 -349 105 160 0
3 -152 313 -221 0
1 -427 437 375 0
5 -355 226 -24 0
6 -47 -85 495 0
6 454 593 558 0
5 -118 -401 186 0
1 486 185 140 0
4 288 587 -405 0
8 165 539 141 0
7 -415 566 189 0
6 -48 -81 514 0
9 174 69 502 0
7 527 135 -458 0
6 256 291 322 0
9 -156 6 -369 0
9 -12 588 -521 0
9 -479 -69 -328 0
6 -34 -145 461 0
2 -568 246 -364 0
8 -21 -48 -356 0
8 278 132 -405 0
5 -469 -42 310 0
5 -389 -473 -324 0
5 -564 -212 -186 0
5 229 -188 320 0
5 521 -351 -202 0
3 297 125 -419 0
9 -258 -504 -138 0
9 -352 -391 -349 0
6 235 321 -225 0
4 5 -402 -567 0
3 -527 528 234 0
5 -224 30 -277 0
1 62 -282 517 0
7 -116 82 -462 0
2 -20 131 353 0
4 543 -512 434 0
3 -307 -225 211 0
9 66 -246 -42 0
9 -60 223 589 0
3 -332 -232 -466 0
3 -486 243 428 0
5 253 -576 -457 0
8 -382 -139 115 0
1 -35 -297 443 0
7 -164 -593 -506 0
6 -558 -264 577 0
2 -306 74 -472 0
7 11 -359 -161 0
1 -436 -384 345 0
5 -94 -349 95 0
6 425 -411 -357 0
5 391 508 -162 0
8 397 -474 377 0
6 289 424 -143 0
7 -33 -350 -373 0
6 -260 -270 -513 0
9 484 -594 -173 0
4 -302 -193 -218 0
5 52 296 -78 0
2 380 -285 -473 0
7 50 566 -581 0
7 224 483 406 0
5 291 -553 249 0
5 378 503 -216 0
8 -69 -348 -259 0
5 315 133 -373 0
2 294 -503 -62 0
2 -203 87 57 0
2 534 -125 261 0
9 555 -131 -126 0
8 -291 204 -75 0
1 -412 -80 -564 0
7 -270 -466 -124 0
5 -384 -536 461 0
2 539 357 -294 0
1 356 263 557 0
8 357 425 -353 0
8 443 -553 -183 0
9 221 -317 -432 0
2 315 572 133 0
6 -262 47 236 0
9 -594 247 -487 0
9 114 53 -555 0
2 -574 231 559 0
4 189 359 -117 0
4 -523 451 220 0
9 -182 -151 114 0
8 535 194 -373 0
6 292 73 46 0
1 -440 109 -442 0
9 162 176 200 0
9 288 -26 287 0
1 193 -540 -435 0
3 -425 -94 -127 0
8 -424 -80 433 0
6 433 504 -435 0
5 -491 202 -213 0
7 456 257 558 0
4 -200 594 542 0
9 -160 103 408 0
3 -502 566 -539 0
9 107 380 -51 0
3 -216 -164 309 0
8 362 117 -379 0
7 -546 193 203 0
3 -350 443 567 0
1 -143 -590 371 0
5 -418 239 -12 0
4 -408 18 295 0
9 -262 -364 287 0
4 -272 479 392 0
2 -548 -94 -171 0
7 32 -466 250 0
7 259 -560 469 0
3 267 477 -83 0
2 514 -504 98 0
9 -48 282 -496 0
1 346 181 239 0
1 -591 -98 492 0
7 -478 166 -197 0
8 444 -470 471 0
9 482 -323 68 0
9 285 14 587 0
5 506 530 363 0
4 -375 -150 333 0
8 -277 226 -53 0
7 502 -356 -55 0
9 -422 -54 407 0
5 295 -245 259 0
6 -42 -112 -396 0
7 -512 183 -242 0
1 -48 -13 300 0
7 407 436 -173 0
8 217 4 62 0
2 -561 -387 -353 0
4 -423 -550 -147 0
5 -529 -591 -14 0
2 -546 517 257 0
9 -258 197 466 0
2 226 424 -472 0
6 474 293 -63 0
2 430 227 -445 0
7 51 -288 441 0
9 -355 -59 396 0
1 103 -420 448 0
2 -375 -222 249 0
5 -556 -487 479 0
4 243 -320 -233 0
9 556 -118 -104 0
3 -540 330 384 0
6 182 -62 -44 0
1 -215 -42 157 0
9 284 416 -107 0
2 -167 295 -555 0
7 424 -417 548 0
6 204 -508 -428 0
5 343 581 -440 0
3 280 -354 552 0
6 203 383 -508 0
4 -366 328 -9 0
7 34 -423 -4 0
4 9 556 -106 0
7 307 -348 -220 0
9 -192 -423 497 0
9 -322 342 -223 0
8 -518 -311 132 0
6 -266 349 -125 0
4 85 78 -191 0
1 351 -76 -419 0
7 -407 260 -416 0
7 -364 170 -124 0
5 -201 372 336 0
1 388 547 -112 0
8 41 -226 544 0
2 474 -146 205 0
6 504 -491 373 0
4 76 312 352 0
4 -137 -503 -313 0
4 -201 -67 158 0
4 -178 -132 172 0
9 -67 470 188 0
6 493 -262 539 0
4 437 441 77 0
2 -127 -186 -444 0
9 141 -573 -247 0
5 202 156 333 0
7 235 353 336 0
8 90 11 397 0
2 -222 181 319 0
6 50 -380 -541 0
8 26 -275 48 0
4 -204 -197 2 0
4 594 -243 -86 0
3 -224 -444 223 0
5 76 -385 -405 0
2 -234 366 -210 0
3 278 -36 299 0
3 -287 -69 291 0
7 4 465 205 0
1 106 242 -412 0
4 -30 -391 -589 0
1 -226 -545 50 0
8 -30 379 -73 0
6 122 368 -499 0
9 -117 -246 -282 0
4 -407 158 -36 0
5 461 -273 341 0
2 463 401 -66 0
9 -458 -166 -328 0
4 440 -552 417 0
6 -390 -203 32 0
3 580 217 340 0
2 -73 -151 -382 0
2 33 -38 -171 0
2 427 -312 -570 0
3 -570 -319 -279 0
4 532 482 -47 0
6 526 529 142 0
5 -159 166 6 0
4 99 -574 -424 0
7 -510 -126 -392 0
5 1 -112 462 0
9 328 -575 85 0
9 571 60 106 0
1 10 -112 -168 0
5 -301 274 212 0
9 -449 -137 -195 0
5 -552 -438 571 0
4 -472 -212 585 0
1 -359 -321 -159 0
6 -42 31 313 0
7 584 -30 220 0
4 -205 -146 -420 0
8 91 -429 30 0
9 -126 306 493 0
7 -70 -418 -239 0
3 80 -116 -14 0
5 -317 304 475 0
6 565 362 -391 0
3 -574 -375 -28 0
7 593 -409 -224 0
9 -164 -273 394 0
2 -273 238 -278 0
7 118 573 -249 0
9 -586 -104 -508 0
5 -304 357 515 0
6 243 -34 -58 0
9 159 562 -306 0
8 -149 285 -58 0
4 -185 -256 171 0
2 -555 160 318 0
7 529 20 25 0
5 -14 261 500 0
9 386 -337 91 0
3 -555 -378 110 0
4 580 -199 -439 0
9 322 -507 -256 0
3 232 283 444 0
4 472 -306 -49 0
2 -5 -270 -193 0
9 -519 -223 531 0
6 -520 477 -288 0
2 -218 273 -483 0
8 373 220 -181 0
7 -404 277 390 0
7 353 333 -156 0
4 406 402 -60 0
6 31 461 -593 0
9 -204 298 -295 0
2 -532 -325 -400 0
3 316 351 395 0
1 -567 -438 -170 0
8 260 185 -154 0
7 506 -561 -242 0
3 171 -1 374 0
1 543 403 79 0
3 356 -477 -48 0
8 -382 -178 -289 0
9 273 -222 -88 0
6 -46 -134 -355 0
9 585 314 135 0
1 -364 142 -316 0
1 -532 -392 -190 0
3 -513 487 231 0
3 439 240 561 0
4 256 -261 -476 0
9 240 -463 483 0
9 -489 -118 -589 0
5 -180 -401 -123 0
9 44 -509 114 0
1 168 -251 221 0
4 -480 -520 85 0
2 -589 -67 305 0
5 540 180 -483 0
5 -393 68 163 0
5 37 258 196 0
5 -192 438 -584 0
3 -418 -404 -68 0
9 86 277 -189 0
5 421 535 -211 0
4 -339 584 495 0
7 416 -26 350 0
2 367 -353 224 0
3 78 -285 435 0
9 -125 -295 543 0
1 192 -304 -284 0
2 433 35 -560 0
9 19 -254 566 0
5 451 -509 -395 0
8 316 417 -211 0
1 133 -140 500 0
3 220 -508 -453 0
2 264 17 -565 0
8 -590 489 -583 0
4 329 -412 -254 0
5 -533 -313 -587 0
5 -143 -288 -310 0
7 -378 -376 511 0
6 -518 -30 144 0
4 -494 453 -124 0
8 -225 557 -437 0
7 -293 340 179 0
2 -148 -329 341 0
2 426 -338 550 0
3 351 40 27 0
6 -401 -107 172 0
6 139 46 453 0
2 500 -325 198 0
4 519 559 -138 0
7 276 -407 202 0
1 -352 -132 87 0
4 -505 -255 -463 0
2 -214 447 -207 0
4 -42 336 -282 0
2 314 543 566 0
8 -63 197 175 0
7 -152 -307 -550 0
3 -570 -228 349 0
3 341 -359 5 0
6 191 372 -356 0
6 512 -417 128 0
6 85 410 -32 0
6 53 514 -472 0
8 -108 365 -60 0
6 -219 308 43 0
1 317 -231 357 0
3 -176 -213 88 0
6 -139 578 -222 0
4 543 -163 47 0
2 -500 243 426 0
1 240 100 499 0
2 26 407 -245 0
5 -143 389 168 0
5 -581 409 -535 0
8 359 406 -587 0
5 450 -519 280 0
2 327 267 1 0
5 -539 360 547 0
9 191 540 437 0
1 122 534 -178 0
1 22 -377 583 0
5 -90 307 67 0
7 263 118 -216 0
9 98 64 -131 0
7 28 30 -173 0
6 -340 464 -195 0
5 -474 505 -568 0
3 -68 406 231 0
6 -401 226 324 0
1 398 -573 -196 0
6 4 368 -514 0
5 273 507 556 0
2 594 157 473 0
6 -26 -575 -301 0
5 -335 576 374 0
6 -129 -261 -511 0
6 305 -489 -87 0
3 72 559 84 0
3 254 -64 -217 0
4 -424 -323 -218 0
4 221 -561 -110 0
2 -574 50 382 0
1 -46 584 -406 0
5 500 543 -393 0
3 -20 -402 77 0
7 -199 133 -562 0
6 -252 -350 -260 0
1 -341 559 -379 0
6 316 -281 -152 0
9 234 -460 135 0
6 -255 -483 -50 0
8 -391 111 227 0
3 -288 112 -524 0
5 -579 -501 -290 0
9 591 478 319 0
6 516 -324 98 0
6 280 90 489 0
2 -95 -481 -584 0
9 40 154 329 0
2 -235 588 -67 0
6 457 -360 -84 0
3 312 6 306 0
6 -257 -495 94 0
7 391 516 -517 0
8 288 -553 -316 0
9 -295 320 488 0
4 452 571 -536 0
5 -451 223 -441 0
7 -357 -26 483 0
4 316 394 -84 0
6 -198 451 -557 0
4 50 -405 -266 0
7 -177 531 -246 0
8 486 -222 -35 0
3 -336 -456 -48 0
1 -134 99 -493 0
1 -538 -116 -573 0
4 -320 12 122 0
7 -348 478 -384 0
4 501 -576 -317 0
7 -507 417 111 0
3 -285 -98 398 0
7 -133 -552 561 0
5 181 56 -217 0
5 -452 48 503 0
6 571 -139 534 0
1 286 507 -586 0
5 -143 -437 -510 0
5 -62 244 498 0
2 -305 533 448 0
5 -594 -512 -179 0
3 70 -219 67 0
3 -281 -483 -141 0
4 312 498 -347 0
3 -140 306 326 0
6 -329 -44 337 0
7 -473 -250 -138 0
7 5 -116 304 0
5 -489 25 -203 0
1 35 -243 461 0
6 201 -430 199 0
4 -582 -224 317 0
7 -469 -463 165 0
9 -558 250 84 0
8 342 70 170 0
6 229 386 6 0
6 9 -56 -535 0
9 263 305 338 0
3 490 -206 225 0
1 -285 590 -367 0
8 290 91 478 0
6 -140 343 248 0
3 -511 541 374 0
5 -248 343 -362 0
5 373 -436 342 0
2 545 -200 91 0
5 172 46 33 0
3 206 -95 191 0
6 -491 -527 -112 0
4 518 505 537 0
6 -90 327 -333 0
8 565 -581 170 0
9 -48 433 555 0
1 451 -438 127 0
5 -252 392 -530 0
1 -208 -273 173 0
1 33 359 446 0
1 -155 -199 -394 0
6 -145 542 348 0
2 -566 282 370 0
2 392 -368 565 0
1 177 384 -489 0
8 452 -371 236 0
2 236 -224 -548 0
9 -445 -332 -371 0
3 -160 437 60 0
4 548 248 81 0
3 -379 166 -545 0
5 -93 551 489 0
7 82 -279 555 0
4 -58 142 -271 0
1 -590 583 -527 0
3 346 454 -156 0
1 -404 173 -90 0
6 114 -240 -265 0
9 -543 463 -537 0
5 -334 19 109 0
9 170 348 408 0
4 299 529 -148 0
6 580 496 477 0
3 -342 4 -107 0
7 -105 17 499 0
5 -336 -43 -183 0
6 296 -43 249 0
2 496 20 -475 0
6 342 -238 -586 0
6 -70 197 98 0
5 -452 262 433 0
9 422 -246 127 0
7 -53 515 374 0
7 -177 -499 172 0
2 586 34 -230 0
9 -193 585 -565 0
3 -312 -305 -122 0
5 453 554 -290 0
6 -39 218 349 0
2 -467 115 -242 0
2 -190 433 311 0
5 230 6 -555 0
1 261 58 320 0
9 97 -289 -342 0
9 -351 -367 123 0
7 3 239 491 0
5 285 316 234 0
8 482 13 -144 0
8 -332 -191 18 0
6 445 -504 226 0
7 427 -210 473 0
4 -254 579 175 0
1 -180 -218 -357 0
9 560 -442 317 0
5 -190 -326 -422 0
5 590 -292 147 0
2 421 270 -96 0
5 354 342 -481 0
8 -419 -153 -549 0
8 -156 -225 205 0
8 482 -430 -119 0
1 246 51 245 0
1 -430 557 -590 0
6 -89 -10 467 0
4 -432 -587 416 0
5 379 73 -108 0
9 316 -443 -224 0
2 266 41 206 0
9 -182 185 590 0
3 -111 76 159 0
3 -576 110 -427 0
4 58 413 -12 0
4 -406 -175 594 0
4 39 251 555 0
4 129 497 416 0
1 14 -71 -347 0
3 -352 -182 -126 0
8 -280 -233 400 0
9 -241 197 -449 0
3 -354 -156 -90 0
4 -535 336 -194 0
4 448 472 534 0
8 558 -9 -259 0
6 258 -531 94 0
3 397 240 338 0
8 589 430 528 0
8 -436 484 33 0
3 399 200 -344 0
6 391 -399 -366 0
3 12 235 23 0
7 -188 -175 -343 0
6 -1 563 -488 0
3 -545 -426 -557 0
2 536 546 -202 0
1 490 -363 -130 0
7 -491 -373 -538 0
4 68 228 -525 0
4 -29 -292 -282 0
1 -73 -18 -485 0
7 243 -265 150 0
3 -460 -550 22 0
6 -193 548 124 0
2 564 -28 285 0
4 -241 114 176 0
6 -382 -7 225 0
7 -381 -526 -79 0
3 23 42 104 0
4 128 26 243 0
8 -477 -56 -177 0
8 -196 438 333 0
5 -27 -334 -545 0
6 48 -227 -540 0
1 -519 279 -301 0
4 217 -413 449 0
1 -549 424 -59 0
9 -423 -49 499 0
9 590 524 34 0
3 61 -37 546 0
1 47 -287 313 0
3 -416 75 243 0
3 -64 141 279 0
2 46 147 -509 0
3 -466 541 -259 0
7 290 29 -534 0
9 554 378 -176 0
4 88 -549 447 0
8 -424 -488 -338 0
8 291 -451 -346 0
8 -263 283 226 0
5 443 511 -494 0
7 -298 502 -440 0
9 -233 -456 -116 0
9 206 -8 -286 0
4 -204 -577 -141 0
1 -382 -446 -160 0
3 133 474 -232 0
5 511 158 -264 0
7 -452 444 85 0
5 -214 -419 -65 0
8 -562 129 469 0
2 336 96 476 0
3 -95 -231 -36 0
1 512 -349 -586 0
2 -236 553 541 0
6 495 -366 9 0
2 374 561 564 0
9 -423 -160 443 0
4 292 90 567 0
9 504 -399 193 0
5 11 -430 226 0
2 294 42 -491 0
3 -413 229 -51 0
4 239 -261 -520 0
6 339 428 -208 0
9 5 -460 -532 0
1 -185 345 -428 0
2 -150 -556 -31 0
7 369 223 -285 0
7 -509 -290 -189 0
9 -91 18 -285 0
5 -431 -495 -14 0
3 -499 -268 83 0
1 -298 215 268 0
6 -358 165 -200 0
1 73 -517 -476 0
2 -149 536 -21 0
9 456 -480 381 0
6 -580 335 -582 0
7 135 -351 -442 0
2 441 339 39 0
3 -289 264 -286 0
5 512 448 -85 0
3 570 129 560 0
7 -425 84 -168 0
3 -55 -348 83 0
1 86 439 371 0
1 -527 263 -179 0
3 -52 -47 241 0
8 -24 534 -575 0
7 173 -122 -288 0
5 -12 33 -476 0
3 -586 -35 94 0
9 -475 -378 -487 0
4 -527 83 -89 0
8 -104 381 -77 0
7 497 -61 575 0
7 -377 -469 417 0
8 -367 36 47 0
3 226 -212 251 0
1 -391 -358 578 0
4 -505 -461 -404 0
2 -558 7 -87 0
6 384 502 174 0
8 -98 47 202 0
4 269 499 -588 0
4 -329 -368 -322 0
6 521 -385 -526 0
3 536 -321 -401 0
7 183 562 14 0
4 -120 532 -96 0
2 185 58 -246 0
3 358 192 270 0
6 577 262 -521 0
4 -279 -137 148 0
3 -168 -332 -430 0
6 537 -410 271 0
9 -446 475 -378 0
2 486 -455 -450 0
8 260 48 -145 0
9 325 347 -103 0
8 -153 485 -565 0
6 481 -250 241 0
1 129 220 -494 0
2 71 431 -403 0
2 404 485 -170 0
2 533 15 511 0
5 -325 -335 353 0
9 88 -491 -358 0
5 560 513 158 0
7 385 592 213 0
9 425 47 -289 0
9 249 250 319 0
8 274 539 314 0
6 -534 343 -123 0
8 -384 -252 80 0
7 -426 -325 -313 0
8 511 271 -159 0
1 504 487 203 0
3 -302 -262 60 0
4 588 140 502 0
9 -289 91 -211 0
9 -400 -78 254 0
3 350 25 237 0
8 -98 -202 86 0
2 -142 499 465 0
4 501 -134 -50 0
7 -350 -370 536 0
5 72 -121 360 0
6 -64 402 557 0
1 456 173 -551 0
9 -454 -161 -455 0
7 -9 402 206 0
5 3 402 567 0
7 43 -403 531 0
2 -335 236 -110 0
9 190 394 173 0
8 -147 505 -314 0
4 -234 -500 99 0
5 -232 400 -456 0
7 513 -426 140 0
9 -560 326 -219 0
6 -88 -423 79 0
2 159 275 -262 0
4 562 -272 552 0
3 432 -570 -268 0
2 -95 -347 48 0
6 -91 283 -86 0
3 -19 34 -189 0
3 103 327 469 0
1 261 -230 -240 0
1 -422 -219 -507 0
1 -426 -79 582 0
5 301 222 275 0
9 443 -58 361 0
2 -137 331 181 0
9 26 -145 -319 0
9 469 163 -335 0
4 512 -279 -572 0
1 362 -446 294 0
3 -290 189 186 0
6 -72 452 -528 0
6 433 -406 147 0
2 -514 -566 -116 0
1 312 -402 -527 0
9 486 -457 -443 0
5 64 321 -48 0
7 561 -232 220 0
7 410 -423 471 0
5 497 535 -448 0
1 125 551 -17 0
2 -520 214 -340 0
9 -387 148 204 0
7 -534 433 427 0
7 -44 314 387 0
1 -588 373 -23 0
1 -508 579 54 0
5 192 280 -559 0
3 -583 182 -241 0
3 440 112 121 0
1 54 560 432 0
8 55 90 303 0
6 517 366 -174 0
4 419 201 -582 0
8 -389 76 507 0
1 33 15 -387 0
2 493 -150 -556 0
1 330 -464 549 0
2 -546 129 195 0
6 -128 -428 262 0
7 -377 -196 -394 0
3 267 -567 168 0
4 58 -438 -564 0
9 529 -285 -426 0
6 226 -206 203 0
6 -97 -150 161 0
9 251 294 -161 0
8 375 -175 -454 0
2 423 517 384 0
7 332 40 404 0
9 -540 296 242 0
6 -358 292 -527 0
6 241 441 -216 0
6 -160 518 94 0
2 -243 -509 24 0
9 171 -444 192 0
5 -470 156 -275 0
7 230 -225 42 0
5 148 164 24 0
3 10 565 -449 0
1 -71 -538 467 0
6 -138 492 325 0
9 -507 391 -86 0
7 -152 570 -259 0
1 75 185 -568 0
6 112 -539 -143 0
3 -385 -377 -592 0
3 423 -208 175 0
5 585 486 44 0
9 -463 -384 218 0
7 3 23 369 0
7 367 184 246 0
1 -230 61 -130 0
3 -138 120 162 0
2 -523 36 -78 0
3 397 -371 29 0
2 -263 352 393 0
5 -520 426 227 0
7 -243 538 -461 0
3 -170 188 316 0
3 373 -198 550 0
4 -555 -562 100 0
8 195 -200 -411 0
5 -31 320 524 0
2 144 338 -499 0
8 261 515 -491 0
2 70 -546 -248 0
8 -322 323 376 0
2 118 -199 -343 0
4 17 391 -193 0
4 -320 -481 440 0
8 -256 591 321 0
4 -289 492 -473 0
5 -135 -409 -577 0
5 394 101 54 0
7 32 116 -21 0
2 -51 575 -71 0
4 410 122 -202 0
6 303 284 367 0
7 -447 236 -225 0
5 400 431 -436 0
8 477 -304 -140 0
9 -105 -465 108 0
9 -387 413 118 0
2 113 535 -219 0
3 60 266 -26 0
4 262 340 -165 0
8 17 132 463 0
3 -460 -164 -262 0
9 366 -154 462 0
8 -294 -102 -434 0
1 38 158 306 0
8 -485 504 -554 0
3 -476 279 564 0
3 -393 323 -18 0
8 -106 -563 -6 0
8 -73 -286 -516 0
8 -333 -457 544 0
4 391 297 165 0
7 185 -129 12 0
5 -117 -201 -197 0
6 448 519 271 0
1 408 -172 542 0
6 -109 333 153 0
4 -373 -94 200 0
5 -60 -444 -372 0
2 373 587 200 0
4 171 21 -394 0
6 319 -90 175 0
8 -296 153 -11 0
4 -44 -37 -64 0
9 -84 -468 -417 0
9 -398 273 -214 0
6 172 157 -332 0
1 150 408 349 0
7 113 388 547 0
2 -508 -38 22 0
2 143 -370 552 0
5 469 -152 -134 0
5 -108 94 550 0
3 -495 568 262 0
7 -533 181 -536 0
2 421 74 -542 0
2 229 301 57 0
9 256 -549 140 0
9 180 -136 400 0
6 -456 236 380 0
9 177 -468 550 0
1 -37 -486 475 0
1 -567 -66 500 0
7 -534 -204 279 0
7 -73 239 -279 0
7 445 357 -308 0
7 -107 383 6 0
2 -538 499 525 0
4 64 354 539 0
1 -19 -27 591 0
7 459 -159 191 0
5 -355 -397 547 0
1 -182 560 116 0
3 -551 -362 19 0
2 -101 -386 -289 0
1 268 259 -409 0
8 223 -46 388 0
2 35 109 350 0
9 424 390 -368 0
5 558 -316 342 0
2 89 -553 225 0
7 -40 -487 88 0
9 420 407 -282 0
4 -244 -28 495 0
3 -329 -430 -400 0
4 283 -265 165 0
1 -193 -502 429 0
6 238 -101 214 0
6 569 -319 567 0
5 460 -191 -175 0
8 -92 95 -260 0
3 -527 171 -307 0
4 327 223 172 0
4 -465 16 495 0
2 -282 -455 318 0
9 406 -234 -269 0
8 244 -167 387 0
4 129 20 -424 0
3 354 210 591 0
4 260 -386 -216 0
5 577 229 71 0
2 -508 -74 -95 0
1 33 -441 -215 0
1 -26 249 -93 0
4 -472 -220 217 0
2 -35 -553 531 0
3 -428 -83 195 0
7 -151 -579 -422 0
9 -285 510 -385 0
6 -232 399 -279 0
3 -288 -334 354 0
8 93 -578 -59 0
4 385 -367 570 0
2 -468 155 -331 0
7 475 -199 -515 0
6 153 -497 444 0
7 34 198 15 0
9 471 -422 292 0
7 583 530 93 0
6 -307 80 -492 0
3 -526 338 118 0
8 -64 -191 227 0
9 -60 228 -503 0
7 569 -145 -285 0
2 167 -392 -452 0
4 -395 -290 -61 0
7 -572 -354 52 0
3 298 464 220 0
2 -295 149 -575 0
7 -567 -463 -357 0
7 362 316 -331 0
2 -496 -378 109 0
4 -530 128 -492 0
7 565 8 53 0
2 200 -417 377 0
9 -332 -404 -400 0
3 -241 58 513 0
2 -427 -190 -392 0
4 393 416 147 0
6 -473 -384 -144 0
5 507 227 376 0
2 534 276 -85 0
7 -190 -174 -10 0
2 -100 224 148 0
8 150 -210 -281 0
5 -346 -431 34 0
7 34 563 -402 0
3 -175 -250 422 0
5 -514 -260 471 0
7 415 -582 -447 0
5 -531 249 404 0
5 -137 508 -376 0
7 465 -360 188 0
8 173 -511 431 0
6 286 -308 426 0
6 -63 322 -468 0
4 109 576 298 0
7 114 428 -58 0
5 -411 -560 53 0
9 -563 -8 237 0
1 -363 -537 350 0
9 529 -330 469 0
1 366 159 -122 0
9 544 221 50 0
5 588 204 -281 0
4 129 -469 162 0
3 255 -30 -519 0
9 -585 374 -304 0
2 68 482 9 0
3 -465 328 -57 0
8 120 -497 547 0
6 -65 -102 337 0
1 440 332 -441 0
6 200 -275 -18 0
2 456 -431 -173 0
6 -310 518 -478 0
8 -498 41 -394 0
4 555 204 231 0
6 490 69 -519 0
4 350 -472 -337 0
5 499 -562 247 0
1 -153 -147 95 0
2 216 559 -509 0
9 211 459 403 0
6 27 210 200 0
3 40 -452 366 0
7 18 36 115 0
9 282 525 398 0
8 152 507 496 0
4 68 -318 588 0
1 342 263 530 0
2 -532 -533 22 0
8 472 211 341 0
8 -206 -540 194 0
8 182 -354 41 0
6 -362 208 516 0
9 -512 568 -593 0
3 -446 -268 -393 0
8 -196 289 189 0
5 113 -193 73 0
4 54 -172 91 0
4 -376 117 -457 0
3 516 -113 -210 0
9 219 139 -355 0
5 414 -235 512 0
6 -280 -151 442 0
7 -364 239 -198 0
5 -87 -426 -53 0
2 -169 -289 145 0
9 3 -158 208 0
8 -412 -373 513 0
1 71 -366 14 0
6 508 265 117 0
9 -119 -14 -89 0
9 -158 -34 -455 0
5 302 -411 -420 0
6 369 -180 462 0
4 222 -528 -467 0
7 545 50 125 0
8 403 220 489 0
5 310 -395 364 0
3 -86 -190 -62 0
8 -411 -64 573 0
7 197 -92 76 0
4 -23 354 -249 0
4 -55 109 29 0
8 -118 -84 -46 0
4 -320 -13 102 0
6 471 86 -289 0
8 299 485 -172 0
4 -145 519 270 0
9 452 -330 -382 0
9 -412 -513 472 0
2 -580 -593 329 0
7 -204 -55 474 0
1 -422 190 519 0
4 19 -524 -527 0
7 -32 548 284 0
4 -570 -393 525 0
9 -179 45 292 0
9 -488 397 207 0
8 399 65 571 0
3 210 228 57 0
5 -11 -542 -94 0
3 -532 -204 -470 0
7 -244 -438 81 0
3 -18 231 255 0
8 -451 -138 -456 0
2 -423 494 -357 0
6 47 -398 -18 0
1 421 -181 -462 0
1 -90 435 -164 0
9 580 512 378 0
9 294 94 -124 0
9 91 145 -127 0
6 -497 -245 -407 0
4 228 -252 493 0
7 -176 -515 -245 0
6 -585 149 305 0
7 -584 -390 464 0
1 -102 -547 -61 0
3 180 459 495 0
3 238 -361 -333 0
7 -446 59 134 0
1 283 348 167 0
5 90 -280 -543 0
7 427 521 -181 0
1 197 593 -427 0
5 -190 266 -461 0
3 -509 407 -190 0
6 -203 199 -494 0
8 -80 315 -543 0
2 -50 26 -382 0
9 -186 -99 -151 0
7 124 385 -140 0
1 -379 90 213 0
4 -209 367 -383 0
7 476 -174 141 0
4 -362 346 119 0
7 -55 291 384 0
2 353 -40 286 0
2 12 -218 592 0
1 474 551 251 0
7 -56 -27 -201 0
9 42 -65 67 0
6 -11 495 -254 0
4 348 -388 -205 0
8 540 133 497 0
9 473 -28 284 0
2 -323 219 -41 0
1 498 148 360 0
2 335 495 -303 0
5 35 387 456 0
7 -221 356 452 0
2 -461 72 -424 0
1 434 -11 -592 0
4 86 -483 415 0
5 166 -478 247 0
7 -389 584 12 0
6 461 76 -440 0
7 -82 -401 -456 0
1 21 -218 -209 0
4 -549 -4 -16 0
5 522 295 520 0
4 -23 -456 504 0
9 227 548 495 0
3 -227 -303 145 0
4 -70 418 80 0
5 -409 493 -40 0
5 -394 -143 229 0
5 -137 -336 -567 0
9 524 527 -92 0
4 -246 515 170 0
4 -556 -465 -253 0
9 113 -351 -247 0
4 -577 100 237 0
6 -226 275 106 0
2 182 -475 409 0
5 -522 -504 -10 0
1 -584 -396 2 0
7 204 -76 -259 0
9 589 526 146 0
3 301 -134 -262 0
5 -386 -325 -40 0
5 -124 412 -543 0
7 192 -457 153 0
4 -302 -23 415 0
9 -347 402 -373 0
3 -452 -36 258 0
4 -134 503 -115 0
1 -326 308 -398 0
3 -441 581 294 0
9 272 -594 341 0
6 -253 -551 557 0
9 123 533 425 0
5 90 339 34 0
1 311 215 -153 0
3 -8 -80 145 0
4 540 -30 308 0
3 -488 -156 263 0
5 -325 180 515 0
5 390 -227 -59 0
5 48 354 422 0
9 -442 234 542 0
9 427 -557 -291 0
8 -492 -373 402 0
3 -259 -121 570 0
5 -133 -587 331 0
5 -490 -164 -521 0
1 -446 -64 -288 0
9 -22 8 -249 0
1 -483 400 522 0
9 310 -121 247 0
1 199 -240 396 0
6 448 -85 -584 0
2 64 -84 560 0
1 360 98 -508 0
3 -18 -302 -62 0
3 -593 -355 -376 0
8 265 476 -517 0
2 -111 5 541 0
6 -449 330 177 0
8 -395 -186 -493 0
3 366 179 -462 0
9 375 470 -303 0
6 -88 61 -62 0
3 -547 -284 175 0
3 140 436 307 0
3 139 -35 -142 0
7 376 392 -403 0
1 -383 -557 181 0
9 261 -67 15 0
8 145 -372 -466 0
8 593 356 -205 0
1 266 -593 -465 0
4 103 88 492 0
2 -213 311 -552 0
6 527 -409 -116 0
3 -121 -330 302 0
8 -99 -15 -483 0
4 -6 -103 -7 0
3 -20 -564 443 0
4 416 188 -514 0
5 -92 432 -416 0
9 592 -311 336 0
4 -537 498 -491 0
7 94 541 -532 0
9 146 269 -582 0
1 -514 20 523 0
7 -331 -446 -587 0
1 -277 151 -594 0
7 -158 348 282 0
7 -542 95 -466 0
8 70 429 -558 0
9 -297 -381 360 0
3 -30 268 395 0
4 -519 -589 -222 0
9 394 123 19 0
8 -135 -59 405 0
6 -21 593 96 0
2 3 -87 -50 0
8 480 -31 536 0
1 -344 -476 -284 0
2 167 255 144 0
1 -195 -213 -59 0
9 7 28 539 0
1 578 -508 528 0
6 -96 -285 -89 0
6 -537 345 -135 0
4 91 182 -230 0
4 168 19 184 0
8 -26 175 247 0
9 -409 -347 -567 0
9 90 173 254 0
9 361 98 159 0
4 324 517 -123 0
4 -379 -267 -182 0
8 -479 124 179 0
2 364 -45 478 0
5 7 286 -5 0
9 99 81 -567 0
7 251 -536 556 0
1 -181 -380 -381 0
3 -367 352 403 0
6 -326 232 -151 0
2 134 406 67 0
9 12 -152 -409 0
2 516 466 -491 0
2 -309 -245 312 0
3 151 472 385 0
6 201 44 -438 0
3 171 -178 -280 0
2 261 -79 -423 0
9 -353 351 -219 0
7 -503 272 -87 0
2 -562 316 585 0
9 487 -512 208 0
5 -24 433 -591 0
4 504 541 395 0
3 -92 -20 471 0
9 193 532 -568 0
2 -412 57 -137 0
3 -194 564 45 0
7 -242 163 -117 0
1 -235 -223 137 0
2 304 75 102 0
1 -112 435 -426 0
1 -465 565 -270 0
3 367 236 -571 0
1 74 544 148 0
2 244 -65 -147 0
4 -109 122 7 0
3 -489 385 434 0
3 132 -530 12 0
8 182 -134 463 0
1 -63 356 -550 0
7 526 174 231 0
1 352 297 410 0
1 -82 -168 -172 0
3 537 -239 592 0
7 -383 400 -374 0
9 535 -192 313 0
2 443 -459 288 0
6 -146 -16 29 0
3 20 226 -127 0
3 -303 319 28 0
7 469 -82 46 0
8 63 -267 554 0
9 -212 -310 540 0
1 101 -79 -438 0
5 -252 -307 -294 0
6 -228 195 480 0
5 328 -456 310 0
2 383 -460 -287 0
1 -289 -265 440 0
9 -78 434 82 0
4 -27 -79 217 0
2 552 -22 -405 0
9 534 530 -161 0
8 17 289 246 0
1 -424 9 -236 0
5 -489 496 -237 0
2 362 -417 102 0
5 -588 -163 171 0
3 257 -278 -226 0
9 -230 -484 -336 0
5 -532 -512 73 0
4 240 436 101 0
1 -190 -10 586 0
1 546 226 5 0
8 460 469 51 0
7 341 242 -484 0
8 414 333 315 0
6 351 468 385 0
7 -575 556 280 0
9 -354 422 466 0
3 -111 203 -478 0
8 -321 475 -351 0
6 419 104 571 0
2 -61 -40 189 0
8 139 536 -45 0
5 170 -555 236 0
5 -76 -242 -150 0
9 -303 -464 120 0
7 154 -120 -476 0
1 -334 -2 481 0
3 -397 404 -545 0
4 -123 -242 327 0
3 442 -163 -114 0
4 -71 271 -41 0
9 -567 -284 547 0
4 587 301 -144 0
1 -447 351 -258 0
6 -582 116 292 0
1 468 62 -448 0
6 110 -96 -292 0
9 563 -314 -199 0
9 273 -336 583 0
6 -571 -43 322 0
5 374 19 496 0
2 488 -83 -109 0
5 -261 531 282 0
1 -500 -39 -384 0
6 165 -312 461 0
9 -285 -326 320 0
1 -308 -425 297 0
2 -382 97 176 0
6 -359 247 111 0
7 -414 283 46 0
2 569 -415 -377 0
8 426 -486 565 0
5 83 296 -303 0
6 -337 -112 -437 0
2 211 240 59 0
8 264 -185 -114 0
8 327 -117 40 0
1 -18 -346 -30 0
8 -505 -181 -114 0
8 -57 348 -102 0
8 -291 471 -333 0
9 39 -425 -257 0
6 80 52 -526 0
6 -342 -18 552 0
8 -306 -380 -9 0
6 -507 -105 451 0
7 -296 47 -393 0
4 53 594 349 0
9 -308 -339 325 0
8 300 364 -130 0
8 -117 167 -508 0
2 -8 -13 -568 0
3 588 493 81 0
2 505 25 -564 0
1 110 -467 37 0
5 299 179 -25 0
5 -472 -394 -60 0
5 -457 -60 -137 0
2 218 -284 -293 0
8 193 399 406 0
1 -271 -149 -237 0
8 -553 -299 -87 0
4 -404 9 -84 0
7 183 361 -274 0
9 391 -363 -59 0
3 -148 46 101 0
1 -18 -571 -79 0
6 450 389 535 0
8 33 120 -34 0
6 -502 559 12 0
5 352 -408 -527 0
6 572 100 -467 0
9 -281 -49 -44 0
4 94 -398 -178 0
6 -184 -276 -530 0
1 -505 331 146 0
8 185 -201 -333 0
1 -456 -45 18 0
4 -389 -422 -511 0
7 -500 -340 -181 0
1 178 -351 37 0
2 -238 322 419 0
6 -434 -524 -102 0
7 180 565 2 0
4 -215 300 34 0
1 132 206 62 0
1 514 -322 482 0
6 206 -544 -589 0
8 -228 -6 300 0
4 -551 85 368 0
4 169 -260 -451 0
3 -127 515 70 0
4 371 -130 -48 0
6 275 -102 100 0
1 -467 158 -356 0
6 587 -250 414 0
5 -204 109 579 0
8 -214 -89 571 0
2 -553 166 -493 0
9 -183 -223 283 0
3 239 246 -308 0
3 -492 -125 -289 0
1 -500 66 -462 0
4 -520 -534 546 0
5 43 -156 125 0
9 290 -387 -288 0
8 -81 26 561 0
1 -205 -536 -419 0
6 37 454 24 0
7 54 558 551 0
8 161 144 -191 0
1 -191 -179 -523 0
2 199 -301 -347 0
3 478 444 408 0
1 79 557 96 0
1 -332 -111 -459 0
5 445 572 -11 0
9 -314 581 -523 0
2 -529 244 -96 0
3 -273 410 421 0
1 -238 -504 208 0
9 347 -184 -538 0
9 -86 229 -30 0
3 141 -64 107 0
1 432 -293 -133 0
4 23 435 -521 0
1 231 154 259 0
7 -299 420 495 0
3 -372 343 -529 0
2 -492 420 329 0
7 -492 390 515 0
5 -220 239 -263 0
8 149 433 -64 0
2 121 -28 104 0
1 -433 260 375 0
8 505 -169 516 0
7 180 400 94 0
5 -291 -215 -117 0
5 6 -337 484 0
1 9 108 472 0
5 585 -69 -109 0
9 -454 -283 -229 0
4 -578 243 320 0
4 -516 172 -103 0
7 -383 -348 -340 0
4 -426 -98 539 0
5 267 -580 -553 0
1 254 -369 368 0
7 -246 -585 221 0
1 486 -150 -412 0
3 -88 442 490 0
7 53 -111 -314 0
2 -263 -176 -257 0
5 -317 -192 113 0
2 -579 -475 -214 0
9 -271 -123 328 0
4 -194 -508 -279 0
3 583 -321 525 0
8 215 -540 -305 0
2 -303 295 271 0
1 -498 -301 -142 0
2 -414 66 119 0
4 427 176 585 0
5 -369 10 412 0
7 420 320 407 0
2 -562 135 -172 0
2 304 505 -35 0
2 76 -13 -110 0
7 -391 -293 67 0
7 -351 -217 -495 0
6 123 311 124 0
9 328 -350 -171 0
5 -516 -302 536 0
2 -549 315 174 0
5 -436 -344 -361 0
4 -359 376 347 0
6 277 -554 311 0
9 -389 543 -131 0
7 -375 159 -523 0
5 336 -530 -58 0
9 59 -536 16 0
2 263 240 181 0
6 -378 410 -501 0
7 -276 458 530 0
9 -203 -404 571 0
9 214 -110 -60 0
6 488 14 -244 0
5 -457 -454 179 0
2 214 264 486 0
5 -325 316 184 0
9 560 414 -402 0
3 472 322 285 0
4 87 489 105 0
4 493 -487 135 0
4 -228 -249 189 0
2 323 120 -96 0
6 -377 82 176 0
1 498 411 337 0
1 -412 -27 -247 0
1 -449 -262 277 0
5 -556 -523 204 0
4 490 -220 -481 0
7 -180 -278 -572 0
2 446 -592 163 0
1 14 331 180 0
9 -466 -357 -117 0
1 -312 -211 117 0
5 -71 -488 209 0
5 -116 90 410 0
3 -410 -99 -155 0
5 -554 101 479 0
3 -242 -142 342 0
7 -154 28 89 0
2 -9 135 -400 0
3 -80 187 449 0
2 105 -85 -426 0
8 106 289 575 0
9 498 -495 -346 0
9 -73 -365 -392 0
3 -141 -441 -67 0
5 249 -579 191 0
2 -586 -366 -573 0
3 494 -94 -138 0
8 -459 144 131 0
1 246 78 -367 0
5 587 -299 -124 0
8 -519 -537 -42 0
9 494 315 -539 0
2 458 -177 -569 0
6 544 377 390 0
7 -67 99 177 0
6 303 314 546 0
3 14 382 -451 0
9 -275 242 -12 0
3 -549 -280 -561 0
9 572 -286 453 0
8 -427 348 579 0
6 125 459 176 0
6 -410 9 331 0
3 340 -325 -376 0
6 -75 -110 101 0
2 -245 -482 246 0
9 331 594 36 0
5 -197 248 229 0
4 40 -352 -578 0
4 -39 375 -137 0
3 -41 -466 -515 0
1 -414 -44 -311 0
2 281 -564 582 0
4 -241 -233 79 0
9 -363 585 44 0
2 246 -68 356 0
5 196 286 -36 0
5 -278 81 -495 0
4 572 -381 392 0
3 11 116 198 0
8 579 73 335 0
3 -91 74 -95 0
7 -182 -309 -36 0
9 264 -396 456 0
8 176 -252 -134 0
6 -371 -258 493 0
3 -536 541 409 0
3 -17 -342 -262 0
8 459 -544 407 0
3 -564 364 -223 0
1 585 -23 510 0
9 -313 230 37 0
9 135 -402 228 0
8 -392 -586 -467 0
8 -525 551 325 0
1 425 389 189 0
9 -315 -120 -252 0
1 60 105 -188 0
7 -136 -360 -63 0
3 131 123 -97 0
3 540 448 520 0
5 -203 -505 221 0
9 -172 -107 -179 0
2 -255 370 -210 0
1 -65 99 587 0
3 393 -587 562 0
5 517 -161 -591 0
1 338 134 191 0
6 -293 -96 151 0
4 381 306 -136 0
9 513 87 380 0
9 174 43 363 0
5 -499 -52 -138 0
2 -98 171 544 0
2 -113 -332 -513 0
8 -244 -483 161 0
1 -102 -211 413 0
6 -364 -93 487 0
6 208 16 193 0
7 1 -4 313 0
9 -13 487 -103 0
5 180 336 314 0
4 222 -91 290 0
1 -17 -118 462 0
4 371 171 302 0
7 52 17 194 0
8 -13 421 -166 0
2 536 558 562 0
4 226 -155 -156 0
7 -471 24 217 0
4 -175 -297 -521 0
7 264 559 -330 0
9 -422 479 -341 0
5 9 -217 -383 0
2 16 -55 86 0
1 -70 -325 92 0
7 -240 -271 205 0
6 -572 456 186 0
1 214 -139 -410 0
1 -31 77 -423 0
5 -374 -303 245 0
2 -45 434 532 0
4 365 379 -138 0
9 -455 -302 56 0
8 254 311 523 0
5 -471 -502 -299 0
1 66 -47 -220 0
9 -360 571 -259 0
9 427 413 363 0
2 548 178 450 0
2 -251 -582 -234 0
7 -50 -346 38 0
9 -476 -530 130 0
9 225 -318 -580 0
6 540 130 -184 0
5 570 -40 -75 0
4 -511 288 401 0
3 411 -559 -473 0
1 583 -114 205 0
9 487 -523 430 0
9 -591 353 357 0
4 576 306 -467 0
4 177 284 449 0
2 -365 -382 -134 0
7 -109 -549 230 0
1 -127 -100 -481 0
4 554 513 227 0
8 -36 -540 99 0
5 -337 506 -583 0
7 568 -319 -158 0
9 -373 -534 499 0
8 293 -61 115 0
8 -20 -265 169 0
5 28 194 -125 0
3 360 280 -482 0
3 565 -186 -224 0
5 -154 -572 216 0
8 517 423 434 0
4 59 230 573 0
3 459 -524 -561 0
2 336 502 -582 0
9 40 -62 -427 0
9 -70 429 -513 0
4 490 -207 586 0
1 -324 -351 -445 0
4 -381 -560 -319 0
7 -284 593 31 0
2 -274 -401 20 0
7 -335 -203 -310 0
8 521 -243 -235 0
3 281 295 -435 0
2 246 -490 4 0
6 -504 -152 442 0
1 -278 40 261 0
2 421 -517 -382 0
6 -115 -205 359 0
2 -495 -39 124 0
7 326 -31 -72 0
4 -120 -513 -236 0
9 -114 170 415 0
5 586 303 114 0
6 287 187 393 0
7 51 -176 192 0
2 419 -516 -81 0
7 -216 -525 -60 0
2 -224 -380 5 0
9 -420 136 541 0
3 -424 -544 194 0
8 -208 430 535 0
9 136 387 -384 0
1 397 383 40 0
6 -49 577 138 0
1 -429 -288 -389 0
4 -213 -423 -36 0
4 468 74 -55 0
9 62 -239 -585 0
1 -560 514 258 0
6 -115 21 -591 0
8 -389 5 109 0
4 -63 48 -24 0
1 50 -509 -439 0
8 142 548 462 0
8 -143 -26 -399 0
6 -337 16 134 0
5 503 353 -329 0
1 381 -314 -411 0
1 234 -139 108 0
3 -463 -197 569 0
1 -302 -19 -368 0
1 501 524 -231 0
2 -536 -366 -551 0
1 -590 -67 -148 0
4 341 164 -50 0
1 -521 228 43 0
1 347 -184 406 0
2 367 69 147 0
6 376 -295 25 0
7 436 519 359 0
8 290 396 391 0
6 457 -297 573 0
8 333 -365 -327 0
3 -180 30 208 0
5 418 466 -521 0
1 102 564 262 0
7 134 -355 8 0
5 -92 47 -413 0
7 115 74 -303 0
8 -373 -396 578 0
9 350 -94 477 0
5 -225 492 511 0
4 582 -130 -214 0
8 145 -554 257 0
5 394 -445 -114 0
8 -83 -170 -35 0
7 -185 535 -94 0
8 204 -563 -183 0
6 504 -513 -226 0
7 225 -498 -389 0
1 -303 103 -510 0
2 -184 200 -36 0
6 117 323 -378 0
9 -333 491 590 0
4 -115 -496 -572 0
2 263 428 542 0
5 224 298 241 0
8 496 -84 409 0
2 -214 -354 -301 0
7 -158 -540 585 0
8 205 -502 -412 0
7 -206 -546 -553 0
6 -557 323 -119 0
7 490 352 -104 0
9 -128 -11 -161 0
4 -553 398 -363 0
5 374 405 -342 0
1 -428 -122 -537 0
3 536 -397 -273 0
1 3 43 571 0
1 60 215 -123 0
6 210 -83 123 0
9 -49 149 383 0
1 326 -1 371 0
1 475 -441 112 0
8 484 167 -6 0
8 -373 -371 359 0
7 8 -559 -450 0
7 458 -101 -439 0
5 395 134 -190 0
9 342 -52 -39 0
7 -207 -88 82 0
9 -291 -303 83 0
4 -142 243 439 0
5 -387 -170 184 0
5 -393 -496 144 0
7 -309 167 -245 0
8 -465 474 133 0
9 -578 -183 490 0
5 -270 151 -567 0
2 -34 -152 148 0
9 251 402 572 0
6 -16 -200 137 0
7 -94 43 -446 0
8 398 -1 257 0
7 -349 -247 -509 0
4 -204 -255 331 0
5 258 -511 -432 0
7 -446 -308 -231 0
3 -243 210 140 0
3 111 89 -77 0
7 575 -543 7 0
9 341 168 298 0
7 478 209 320 0
1 370 228 408 0
2 -291 581 -27 0
4 -126 136 407 0
1 517 520 -104 0
5 3 57 289 0
6 343 -372 -141 0
3 -255 -88 -60 0
3 125 -255 276 0
9 -390 -309 -179 0
6 -478 -333 474 0
4 44 -248 -112 0
4 11 -380 -240 0
5 14 102 -132 0
3 499 407 -223 0
9 -32 559 -524 0
3 -132 -578 502 0
8 133 -537 -149 0
9 -191 -508 -98 0
6 -350 -231 444 0
3 297 343 33 0
4 -306 572 -491 0
5 -451 -212 -565 0
4 9 329 -334 0
5 -444 -191 -43 0
2 -411 -7 459 0
8 -578 500 -39 0
2 2 334 -330 0
9 -101 304 223 0
7 524 276 -146 0
2 -288 38 533 0
5 -170 -219 -553 0
8 538 -20 -157 0
7 344 48 -209 0
5 434 -387 34 0
5 279 -524 63 0
5 79 -1 -236 0
8 378 -305 -6 0
8 274 522 122 0
7 306 -260 454 0
9 -481 411 241 0
2 -69 -11 -48 0
9 -444 -474 344 0
2 -11 -270 323 0
3 -185 541 -489 0
4 352 -542 213 0
6 -461 -97 -227 0
5 -579 547 -379 0
2 22 -436 592 0
8 -20 -283 -328 0
3 586 546 195 0
4 555 100 -426 0
6 -537 -34 -408 0
5 -217 -473 -169 0
2 90 -265 -428 0
7 -453 431 -167 0
6 -274 231 110 0
6 -99 -366 -409 0
3 -374 -124 273 0
9 -387 286 385 0
5 -368 -434 179 0
5 374 -2 372 0
7 -48 -534 -278 0
6 -90 484 249 0
3 -464 206 -448 0
8 33 -328 -99 0
4 277 27 280 0
7 257 -270 -382 0
2 -454 -222 544 0
9 -438 -118 314 0
3 -52 569 -18 0
5 392 297 -455 0
1 -267 483 -53 0
6 -66 -188 132 0
2 258 -31 -413 0
9 -159 402 27 0
8 -337 -56 -494 0
9 178 482 109 0
1 149 135 483 0
6 364 -19 263 0
9 179 -171 -227 0
6 -240 -106 374 0
6 245 558 -534 0
7 -258 43 -286 0
3 500 -274 -284 0
7 -485 -418 53 0
2 165 -264 -224 0
3 551 -370 69 0
1 -287 579 -81 0
5 9 389 163 0
4 587 -1 -388 0
5 -2 587 295 0
6 -123 -227 -273 0
9 379 -461 -564 0
2 -195 586 -128 0
9 422 495 489 0
4 411 28 217 0
9 -463 -449 384 0
4 232 231 -329 0
6 154 -180 -318 0
1 -409 -361 -164 0
5 -426 -117 262 0
6 -241 506 208 0
4 143 -251 -257 0
2 183 467 376 0
7 -353 230 -94 0
4 415 -165 -318 0
4 279 65 57 0
3 346 -113 443 0
3 -523 -387 166 0
3 -285 573 275 0
6 -411 -227 579 0
9 -107 -140 41 0
4 -83 27 297 0
4 -357 -172 594 0
9 -377 480 -468 0
3 235 -545 174 0
8 283 115 -208 0
5 -360 -253 -255 0
8 -387 248 331 0
9 -238 174 -37 0
7 447 399 150 0
7 -449 -382 -437 0
4 305 74 -38 0
3 -145 124 -373 0
3 4 151 -159 0
5 -195 367 -222 0
3 478 -59 70 0
2 39 235 -513 0
7 -23 589 -528 0
8 -496 28 582 0
8 -433 -499 84 0
7 -438 113 375 0
1 -232 161 434 0
9 123 -8 -416 0
1 122 171 -275 0
7 398 91 430 0
6 -510 -274 -329 0
2 -53 286 -100 0
6 -580 -163 141 0
3 381 -586 -368 0
4 198 515 23 0
7 -586 448 -208 0
1 524 -201 -579 0
4 -282 -19 -84 0
9 91 -361 -347 0
7 -88 378 -23 0
5 -107 -254 172 0
1 -442 88 -515 0
5 -34 427 -213 0
1 580 -83 -100 0
9 165 -257 519 0
3 -533 -200 236 0
9 -436 -83 122 0
9 333 315 280 0
7 344 300 -185 0
9 -153 -583 25 0
9 225 486 350 0
7 277 442 524 0
3 15 -373 -563 0
5 -578 235 262 0
5 -164 -472 543 0
2 -81 -557 420 0
1 493 445 178 0
5 1 584 -256 0
8 467 -387 -107 0
1 -528 -62 167 0
1 -124 452 264 0
1 587 1 180 0
2 143 165 360 0
7 344 356 351 0
8 -281 -8 -460 0
5 -361 184 377 0
9 -359 492 -186 0
6 535 -408 -186 0
2 590 -543 417 0
9 321 317 292 0
2 -555 451 499 0
4 -105 423 -451 0
3 -327 -164 -5 0
4 -247 503 203 0
9 -591 144 -71 0
5 -535 291 566 0
2 -426 506 529 0
7 -589 -52 -425 0
9 538 -4 -441 0
7 386 -253 390 0
1 508 56 303 0
8 -300 -256 -453 0
9 -436 500 148 0
6 -207 211 -227 0
5 435 -580 -564 0
8 74 -594 -233 0
2 -11 27 483 0
5 -310 447 231 0
5 -118 347 366 0
8 280 -331 -435 0
6 -586 -342 78 0
2 593 455 427 0
9 45 318 -245 0
8 -316 221 -182 0
6 -354 387 -569 0
7 -8 416 590 0
6 -131 515 77 0
7 -226 396 587 0
7 -350 125 222 0
7 -349 -72 -203 0
6 -214 -321 539 0
4 -485 416 246 0
4 -106 -73 -396 0
4 255 293 591 0
2 -337 -42 420 0
7 -48 -369 269 0
3 152 260 -590 0
7 37 -463 341 0
7 -525 141 -119 0
2 141 -109 -57 0
9 -436 -496 219 0
5 -278 -479 585 0
6 481 -363 -229 0
1 -291 -507 -71 0
7 -101 -49 541 0
7 475 -514 478 0
6 -569 -358 -197 0
8 -221 80 416 0
2 294 223 121 0
5 452 -580 59 0
9 -297 450 -564 0
1 -315 537 2 0
5 -269 570 -111 0
4 -170 327 -192 0
6 485 -520 -362 0
5 -205 313 272 0
4 -178 -78 -247 0
9 354 525 366 0
8 -292 -432 -570 0
4 41 446 372 0
7 93 -413 -101 0
5 -330 -50 257 0
7 545 19 501 0
1 -50 -245 -373 0
4 501 -556 -249 0
9 -273 -149 40 0
7 310 120 -400 0
8 98 514 -156 0
5 -256 231 294 0
5 -40 520 541 0
6 -257 491 -111 0
7 -178 -235 94 0
4 269 132 -79 0
8 383 -475 540 0
7 -264 592 525 0
8 -115 591 505 0
4 -479 186 -252 0
4 572 -15 374 0
1 -479 360 -563 0
8 -100 87 90 0
8 -544 138 366 0
1 42 461 413 0
8 494 -502 68 0
7 -522 -178 -256 0
6 433 -312 322 0
4 -23 327 348 0
7 548 -591 258 0
4 92 131 47 0
2 -450 192 383 0
8 -444 -99 -304 0
4 -381 -35 -84 0
3 -381 -287 145 0
1 -162 114 562 0
6 -325 -154 -450 0
1 133 363 135 0
2 -345 111 553 0
9 -427 -249 146 0
4 281 20 579 0
6 -23 90 473 0
7 -511 529 -257 0
7 186 119 86 0
7 392 429 369 0
5 448 555 222 0
6 -402 -326 -415 0
8 562 582 -390 0
9 210 -335 320 0
9 416 -315 -181 0
2 -30 -178 -310 0
9 -594 -110 -371 0
9 -174 377 -143 0
8 302 -425 410 0
6 -251 -274 317 0
5 105 553 -225 0
2 533 -1 -49 0
1 143 211 244 0
4 -71 -537 506 0
5 -502 -1 -44 0
2 -490 -255 175 0
8 548 -279 305 0
3 -450 93 336 0
6 441 580 386 0
2 -239 441 207 0
4 8 342 -272 0
9 -371 -81 478 0
2 413 86 511 0
1 218 -200 -287 0
5 -457 234 -246 0
2 -427 -423 72 0
3 564 83 -525 0
8 -307 -170 341 0
7 541 219 -399 0
4 -551 344 -239 0
4 379 240 519 0
4 308 524 -460 0
3 -298 -320 -541 0
6 180 353 101 0
6 132 174 416 0
3 389 -166 -493 0
5 -482 -286 -226 0
2 29 579 489 0
7 -336 173 285 0
5 557 330 379 0
6 -448 -38 139 0
6 -17 -225 -429 0
4 87 -387 -18 0
5 103 -143 198 0
4 465 -557 -117 0
2 535 443 428 0
5 31 -306 -401 0
4 7 291 551 0
6 384 144 374 0
4 60 -323 439 0
4 73 -469 -549 0
7 -28 386 -546 0
5 -210 -460 -88 0
1 -202 -474 -277 0
2 209 -476 280 0
9 548 165 594 0
4 -326 -555 494 0
3 -213 319 352 0
2 397 -346 466 0
6 204 88 589 0
9 -93 -351 437 0
3 69 -264 339 0
4 -511 -380 7 0
9 -273 -411 -523 0
8 156 -537 394 0
7 -345 571 -165 0
2 -215 123 -254 0
5 -17 301 102 0
6 427 -224 115 0
3 525 413 -29 0
1 49 -563 -225 0
2 1 477 -199 0
1 -450 566 -464 0
7 264 -254 74 0
9 -67 203 49 0
8 -545 -134 -246 0
5 -249 -260 510 0
3 528 -161 -141 0
2 -511 -160 461 0
8 493 -199 -315 0
3 -511 -315 -574 0
5 -476 18 100 0
8 381 -223 227 0
1 -433 -283 348 0
4 78 276 100 0
5 174 203 -294 0
9 -462 -62 106 0
8 56 273 -3 0
5 -505 520 -429 0
8 258 138 -576 0
5 -378 54 -101 0
2 -511 -102 -242 0
4 257 -440 -302 0
6 333 308 341 0
6 -322 470 -401 0
5 503 391 -589 0
9 513 -235 412 0
9 -126 -298 -303 0
4 466 567 -119 0
4 -92 -42 193 0
7 -588 580 188 0
5 364 -153 -529 0
9 -65 489 144 0
4 -139 -109 -327 0
5 255 -579 466 0
5 528 -463 409 0
9 -195 447 -340 0
6 -81 -487 -112 0
8 205 -247 79 0
5 236 -588 223 0
7 30 111 385 0
4 268 -167 -317 0
6 97 -230 415 0
6 482 -19 -253 0
8 319 83 225 0
6 -320 -35 -524 0
7 -443 -585 281 0
8 286 -323 462 0
9 -454 400 -300 0
3 -166 407 -226 0
3 60 526 -111 0
5 -478 -71 -249 0
5 482 -381 -478 0
2 -470 -1 -578 0
4 -473 1 169 0
1 324 50 -412 0
9 -23 -22 547 0
9 198 -78 594 0
4 350 228 150 0
7 -464 79 -568 0
1 140 572 389 0
7 305 -191 167 0
8 205 -518 -253 0
5 -190 447 181 0
3 42 108 268 0
9 100 47 460 0
8 214 -97 441 0
8 -226 -399 400 0
5 -572 23 -305 0
7 -376 399 576 0
2 -405 14 -594 0
7 23 -71 -119 0
9 -360 -323 -161 0
5 -37 54 -335 0
1 257 -488 331 0
1 535 -194 61 0
5 512 208 -289 0
8 177 -203 -118 0
1 -446 -385 535 0
5 137 -42 504 0
4 -34 67 -459 0
9 219 -47 -281 0
8 -321 -217 558 0
7 304 36 -177 0
8 108 332 29 0
5 -362 403 186 0
7 394 -185 -371 0
1 -227 339 243 0
9 -459 346 -283 0
4 -242 -371 -457 0
5 293 537 -373 0
7 -389 158 -481 0
5 -442 -231 198 0
7 -26 -561 -518 0
3 -239 -14 -407 0
4 92 42 -59 0
8 -390 281 -316 0
4 -23 -577 -387 0
3 -30 315 237 0
2 35 -419 -63 0
5 549 -23 -363 0
7 96 538 384 0
1 -230 26 -460 0
2 -223 113 52 0
2 -187 -473 319 0
4 577 424 -109 0
3 -148 -170 453 0
